LAMMPS (29 Aug 2024)
units                  real
atom_style	       full
bond_style	       harmonic
angle_style	       harmonic
boundary	       p p p

neighbor 2.0 bin
neigh_modify every 1 delay 0 check yes

# ============= read data and parameters files

read_data             memb_2.lammps
Reading data file ...
  orthogonal box = (-0.1495 -0.193001 -38.75) to (32.8505 32.806999 41.25)
  1 by 1 by 1 MPI processor grid
  reading atoms ...
  4369 atoms
  scanning bonds ...
  4 = max bonds/atom
  scanning angles ...
  6 = max angles/atom
  scanning dihedrals ...
  8 = max dihedrals/atom
  scanning impropers ...
  2 = max impropers/atom
  orthogonal box = (-0.1495 -0.193001 -38.75) to (32.8505 32.806999 41.25)
  1 by 1 by 1 MPI processor grid
  reading bonds ...
  3937 bonds
  reading angles ...
  4687 angles
  reading dihedrals ...
  6951 dihedrals
  reading impropers ...
  1152 impropers
Finding 1-2 1-3 1-4 neighbors ...
  special bond factors lj:    0        0        0       
  special bond factors coul:  0        0        0       
     4 = max # of 1-2 neighbors
     6 = max # of 1-3 neighbors
    18 = max # of 1-4 neighbors
    18 = max # of special neighbors
  special bonds CPU = 0.002 seconds
  read_data CPU = 0.052 seconds

pair_style            lj/cut 10.0
pair_modify           shift yes mix arithmetic


pair_coeff  1  1      0.0859  3.3997
pair_coeff  2  2      0.0659  3.5000
pair_coeff  3  3      0.0859  3.3997
pair_coeff  4  4      0.0859  3.3997
pair_coeff  5  5      0.0299  2.5000
pair_coeff  6  6      0.0000  1.0000
pair_coeff  7  7      0.1521  3.1507

bond_coeff     1      938.0    1.42
bond_coeff     2      661.2    1.10
bond_coeff     3      938.0    1.42
bond_coeff     4      938.0    1.42
bond_coeff     5      450.0    0.9572

angle_coeff    1      126      120.0
angle_coeff    2      126      120.0
angle_coeff    3      126      120.0
angle_coeff    4      78.8     109.5
angle_coeff    5      55.0     104.52


group  water     type 6  7
2985 atoms in group water
group  memb      type 1
438 atoms in group memb
group  CG1       type 3
448 atoms in group CG1
group  CG2       type 4
448 atoms in group CG2
group  CG3       type 3 4
896 atoms in group CG3


compute 9 all pe/atom

dump dump_1 all custom 500 dump.lammpstrj id type x y z

timestep 1.0
thermo_style custom step time cpu temp pe ke etotal press vol
thermo 100

fix                    myshk1  water shake 1.0e-5 200 0 b 5 a 5
Finding SHAKE clusters ...
       0 = # of size 2 clusters
       0 = # of size 3 clusters
       0 = # of size 4 clusters
     995 = # of frozen angles
  find clusters CPU = 0.001 seconds

minimize               1.0e-4 1.0e-6 100 1000

CITE-CITE-CITE-CITE-CITE-CITE-CITE-CITE-CITE-CITE-CITE-CITE-CITE

Your simulation uses code contributions which should be cited:

- Type Label Framework: https://doi.org/10.1021/acs.jpcb.3c08419

@Article{Gissinger24,
 author = {Jacob R. Gissinger, Ilia Nikiforov, Yaser Afshar, Brendon Waters, Moon-ki Choi, Daniel S. Karls, Alexander Stukowski, Wonpil Im, Hendrik Heinz, Axel Kohlmeyer, and Ellad B. Tadmor},
 title = {Type Label Framework for Bonded Force Fields in LAMMPS},
 journal = {J. Phys. Chem. B},
 year =    2024,
 volume =  128,
 number =  13,
 pages =   {3282â€“-3297}
}

CITE-CITE-CITE-CITE-CITE-CITE-CITE-CITE-CITE-CITE-CITE-CITE-CITE

Generated 21 of 21 mixed pair_coeff terms from arithmetic mixing rule
WARNING: Dihedrals are defined but no dihedral style is set (../force.cpp:207)
WARNING: Likewise 1-4 special neighbor interactions != 1.0 (../force.cpp:209)
WARNING: Impropers are defined but no improper style is set (../force.cpp:212)
WARNING: Using fix shake with minimization.
  Substituting constraints with harmonic restraint forces using kbond=1987 (../fix_shake.cpp:386)
Neighbor list info ...
  update: every = 1 steps, delay = 0 steps, check = yes
  max neighbors/atom: 2000, page size: 100000
  master list distance cutoff = 12
  ghost atom cutoff = 12
  binsize = 6, bins = 6 6 14
  1 neighbor lists, perpetual/occasional/extra = 1 0 0
  (1) pair lj/cut, perpetual
      attributes: half, newton on
      pair build: half/bin/newton
      stencil: half/bin/3d
      bin: standard
Per MPI rank memory allocation (min/avg/max) = 20.14 | 20.14 | 20.14 Mbytes
   Step          Time           CPU            Temp          PotEng         KinEng         TotEng         Press          Volume    
         0   0              0              0              8.5066053e+12  0              8.5066053e+12  2.678075e+13   87120        
       100   100            2.0781901      0              9308.718       0              9308.718       63566.774      87120        
Loop time of 2.07821 on 1 procs for 100 steps with 4369 atoms

99.4% CPU use with 1 MPI tasks x no OpenMP threads

Minimization stats:
  Stopping criterion = max iterations
  Energy initial, next-to-last, final = 
      8506605303287.97   9399.72420766493   9308.71802610091
  Force two-norm initial, final = 4.1278633e+14 945.72612
  Force max component initial, final = 2.633483e+14 115.63427
  Final line search alpha, max atom move = 0.00034128799 0.039464587
  Iterations, force evaluations = 100 135

MPI task timing breakdown:
Section |  min time  |  avg time  |  max time  |%varavg| %total
---------------------------------------------------------------
Pair    | 1.8951     | 1.8951     | 1.8951     |   0.0 | 91.19
Bond    | 0.026938   | 0.026938   | 0.026938   |   0.0 |  1.30
Neigh   | 0.13035    | 0.13035    | 0.13035    |   0.0 |  6.27
Comm    | 0.0073358  | 0.0073358  | 0.0073358  |   0.0 |  0.35
Output  | 4.3442e-05 | 4.3442e-05 | 4.3442e-05 |   0.0 |  0.00
Modify  | 0.007262   | 0.007262   | 0.007262   |   0.0 |  0.35
Other   |            | 0.01123    |            |       |  0.54

Nlocal:           4369 ave        4369 max        4369 min
Histogram: 1 0 0 0 0 0 0 0 0 0
Nghost:          11828 ave       11828 max       11828 min
Histogram: 1 0 0 0 0 0 0 0 0 0
Neighs:    1.21857e+06 ave 1.21857e+06 max 1.21857e+06 min
Histogram: 1 0 0 0 0 0 0 0 0 0

Total # of neighbors = 1218569
Ave neighs/atom = 278.91257
Ave special neighs/atom = 6.3401236
Neighbor list builds = 6
Dangerous builds = 0

fix                    freeze memb setforce 0.0 0.0 0.0

#fix                   pistonkeep CG3  setforce  0.0 0.0 NULL
#fix                   myforce1   CG1  aveforce NULL NULL  -0.03180     #P=50 bars
#fix                   myforce2   CG2  aveforce NULL NULL  NULL
fix                    freeze1    CG3  setforce 0.0 0.0 0.0

fix                    mynvt  all nvt temp 300 300 100.0
run                    100000
Generated 21 of 21 mixed pair_coeff terms from arithmetic mixing rule
WARNING: Dihedrals are defined but no dihedral style is set (../force.cpp:207)
WARNING: Likewise 1-4 special neighbor interactions != 1.0 (../force.cpp:209)
WARNING: Impropers are defined but no improper style is set (../force.cpp:212)
Per MPI rank memory allocation (min/avg/max) = 20.44 | 20.44 | 20.44 Mbytes
   Step          Time           CPU            Temp          PotEng         KinEng         TotEng         Press          Volume    
       100   0              0              0              9289.2576      0              9289.2576      64353.865      87120        
       200   100            1.2071         102.6541       8390.8596      1032.1123      9422.9719      61266.744      87120        
       300   200            2.4557259      139.61697      8365.1844      1403.747       9768.9314      61035.689      87120        
       400   300            3.7699373      183.82135      8381.0353      1848.1899      10229.225      61148.061      87120        
       500   400            5.0963998      220.44445      8550.5598      2216.4085      10766.968      61855.582      87120        
       600   500            6.4570262      262.70219      8687.4225      2641.2793      11328.702      62440.401      87120        
       700   600            7.8174698      299.13316      8823.8447      3007.5662      11831.411      63044.335      87120        
       800   700            9.203464       319.49972      8883.7645      3212.3372      12096.102      63329.464      87120        
       900   800            10.58812       310.62737      8847.8457      3123.1322      11970.978      63159.206      87120        
      1000   900            11.943399      294.84846      8741.6853      2964.4867      11706.172      62743.955      87120        
      1100   1000           13.313107      284.5842       8725.6252      2861.287       11586.912      62667.539      87120        
      1200   1100           14.688982      293.03579      8785.3427      2946.2616      11731.604      62858.554      87120        
      1300   1200           16.068771      312.66606      8768.2609      3143.6297      11911.891      62817.566      87120        
      1400   1300           17.456995      307.00258      8733.8508      3086.6875      11820.538      62619.311      87120        
      1500   1400           18.823698      290.36008      8701.1797      2919.3593      11620.539      62419.221      87120        
      1600   1500           20.218215      290.8238       8649.2739      2924.0217      11573.296      62233.671      87120        
      1700   1600           21.584391      302.32441      8645.5271      3039.6519      11685.179      62225.28       87120        
      1800   1700           22.97443       306.68233      8680.8693      3083.4677      11764.337      62354.653      87120        
      1900   1800           24.367949      302.77809      8657.4471      3044.2133      11701.66       62280.732      87120        
      2000   1900           25.76057       293.49026      8634.0649      2950.831       11584.896      62137.766      87120        
      2100   2000           27.147809      292.27285      8653.3198      2938.5908      11591.911      62193.874      87120        
      2200   2100           28.515862      304.3308       8640.0652      3059.8247      11699.89       62185.046      87120        
      2300   2200           29.905891      300.39349      8661.9599      3020.2379      11682.198      62269.322      87120        
      2400   2300           31.297463      299.5816       8608.59        3012.075       11620.665      62056.532      87120        
      2500   2400           32.69009       298.17329      8597.5827      2997.9154      11595.498      62008.336      87120        
      2600   2500           34.084486      300.86         8585.4891      3024.9284      11610.417      61981.909      87120        
      2700   2600           35.454604      299.28248      8612.4905      3009.0675      11621.558      62045.852      87120        
      2800   2700           36.844631      297.73649      8639.8662      2993.5237      11633.39       62154.423      87120        
      2900   2800           38.261606      301.96521      8624.3074      3036.0405      11660.348      62059.497      87120        
      3000   2900           39.653751      302.32091      8561.5784      3039.6167      11601.195      61818.599      87120        
      3100   3000           41.037187      292.96784      8578.059       2945.5785      11523.637      61873.763      87120        
      3200   3100           42.425543      295.8447       8589.1493      2974.5031      11563.652      61962.027      87120        
      3300   3200           43.80922       306.78655      8560.9412      3084.5155      11645.457      61839.521      87120        
      3400   3300           45.194984      302.41045      8567.1943      3040.517       11607.711      61836.201      87120        
      3500   3400           46.587064      295.45662      8538.6704      2970.6013      11509.272      61704.674      87120        
      3600   3500           47.954255      292.53318      8545.9974      2941.2083      11487.206      61755.234      87120        
      3700   3600           49.340717      307.14614      8504.1422      3088.131       11592.273      61657.397      87120        
      3800   3700           50.726593      309.24755      8538.5851      3109.2591      11647.844      61787.542      87120        
      3900   3800           52.114225      298.8983       8562.1847      3005.2049      11567.39       61863.59       87120        
      4000   3900           53.500084      293.19155      8565.8428      2947.8276      11513.67       61802.587      87120        
      4100   4000           54.855537      300.37197      8525.3454      3020.0216      11545.367      61705.2        87120        
      4200   4100           56.245324      300.63015      8564.6616      3022.6174      11587.279      61825.459      87120        
      4300   4200           57.634108      305.20767      8541.8047      3068.641       11610.446      61779.056      87120        
      4400   4300           59.022774      304.32644      8518.0272      3059.7808      11577.808      61678.352      87120        
      4500   4400           60.408378      292.20987      8565.7576      2937.9576      11503.715      61823.398      87120        
      4600   4500           61.800399      296.99962      8546.4338      2986.115       11532.549      61775.382      87120        
      4700   4600           63.217055      303.69809      8575.5603      3053.4633      11629.024      61862.944      87120        
      4800   4700           64.607988      308.52452      8550.5622      3101.9895      11652.552      61787.163      87120        
      4900   4800           66.02598       295.37339      8576.678       2969.7645      11546.442      61901.068      87120        
      5000   4900           67.422316      297.93128      8508.7382      2995.4823      11504.22       61632.346      87120        
      5100   5000           68.840027      295.05056      8608.4961      2966.5187      11575.015      62003.622      87120        
      5200   5100           70.261033      313.36566      8557.3436      3150.6637      11708.007      61876.289      87120        
      5300   5200           71.687511      307.28019      8576.0773      3089.4787      11665.556      61905.589      87120        
      5400   5300           73.126891      290.77474      8585.7217      2923.5284      11509.25       61897.371      87120        
      5500   5400           74.528325      294.26142      8522.7341      2958.5845      11481.319      61664.675      87120        
      5600   5500           75.95422       298.83471      8578.0589      3004.5655      11582.624      61876.719      87120        
      5700   5600           77.397423      307.63922      8557.206       3093.0885      11650.294      61819.964      87120        
      5800   5700           78.845849      298.67999      8564.7317      3003.0099      11567.742      61850.275      87120        
      5900   5800           80.310876      292.59051      8568.6943      2941.7847      11510.479      61869.316      87120        
      6000   5900           81.756061      293.8431       8596.848       2954.3785      11551.227      61945.696      87120        
      6100   6000           83.180646      304.75191      8584.8456      3064.0587      11648.904      61952.405      87120        
      6200   6100           84.610767      304.0527       8597.1709      3057.0286      11654.2        61970.816      87120        
      6300   6200           86.060644      295.698        8590.2775      2973.0282      11563.306      61942.168      87120        
      6400   6300           87.487431      293.3137       8576.2912      2949.0559      11525.347      61862.956      87120        
      6500   6400           88.923442      300.01262      8569.8343      3016.4086      11586.243      61847.471      87120        
      6600   6500           90.33215       304.81023      8587.0992      3064.6451      11651.744      61930.337      87120        
      6700   6600           91.739038      302.63427      8567.3785      3042.7674      11610.146      61865.127      87120        
      6800   6700           93.14442       295.42316      8536.8829      2970.2649      11507.148      61749.981      87120        
      6900   6800           94.527562      293.68239      8552.3415      2952.7627      11505.104      61778.47       87120        
      7000   6900           95.912488      303.07798      8578.7731      3047.2286      11626.002      61896.307      87120        
      7100   7000           97.298571      305.10495      8596.1973      3067.6083      11663.806      61916.872      87120        
      7200   7100           98.71248       298.38329      8571.1236      3000.0269      11571.15       61830.707      87120        
      7300   7200           100.10685      291.26262      8576.2142      2928.4336      11504.648      61844.462      87120        
      7400   7300           101.50638      296.93089      8569.5361      2985.424       11554.96       61841.245      87120        
      7500   7400           102.93624      304.14526      8568.7346      3057.9592      11626.694      61869.795      87120        
      7600   7500           104.44851      300.27288      8585.2651      3019.0253      11604.29       61901.648      87120        
      7700   7600           105.84853      299.32117      8528.2521      3009.4565      11537.709      61743.542      87120        
      7800   7700           107.31464      299.56098      8514.4904      3011.8677      11526.358      61636.436      87120        
      7900   7800           108.77126      300.66922      8533.4517      3023.0102      11556.462      61682.694      87120        
      8000   7900           110.18141      304.36829      8529.984       3060.2016      11590.186      61684.573      87120        
      8100   8000           111.57892      296.54977      8585.4682      2981.5921      11567.06       61886.195      87120        
      8200   8100           112.99847      298.21904      8542.1117      2998.3754      11540.487      61757.653      87120        
      8300   8200           114.42766      302.18867      8490.6218      3038.2871      11528.909      61557.867      87120        
      8400   8300           115.83166      297.30941      8513.9449      2989.2298      11503.175      61646.429      87120        
      8500   8400           117.24005      305.24783      8457.9006      3069.0449      11526.945      61450.34       87120        
      8600   8500           118.65852      296.23033      8567.1879      2978.3804      11545.568      61789.503      87120        
      8700   8600           120.09243      306.05977      8528.963       3077.2082      11606.171      61663.365      87120        
      8800   8700           121.51733      301.14156      8574.3734      3027.7593      11602.133      61829.821      87120        
      8900   8800           122.94403      298.18204      8509.1412      2998.0034      11507.145      61608.205      87120        
      9000   8900           124.36503      290.06378      8566.6127      2916.3803      11482.993      61823.05       87120        
      9100   9000           125.76952      302.85734      8497.0367      3045.0102      11542.047      61618.04       87120        
      9200   9100           127.17721      302.72087      8497.8314      3043.638       11541.469      61603.884      87120        
      9300   9200           128.56127      299.53171      8506.4566      3011.5734      11518.03       61586.183      87120        
      9400   9300           129.94379      291.41989      8569.2947      2930.015       11499.31       61757.335      87120        
      9500   9400           131.32797      306.58501      8526.2501      3082.4891      11608.739      61658.961      87120        
      9600   9500           132.71655      304.45608      8558.2568      3061.0843      11619.341      61776.559      87120        
      9700   9600           134.0801       299.1596       8537.7306      3007.8321      11545.563      61707.984      87120        
      9800   9700           135.46661      298.19384      8518.2116      2998.1221      11516.334      61632.002      87120        
      9900   9800           136.84828      298.26866      8528.6229      2998.8743      11527.497      61701.464      87120        
     10000   9900           138.23226      305.34661      8580.6527      3070.038       11650.691      61889.752      87120        
     10100   10000          139.60887      307.54327      8549.1715      3092.1238      11641.295      61719.361      87120        
     10200   10100          140.99127      300.5138       8548.1318      3021.4476      11569.579      61736.378      87120        
     10300   10200          142.35154      301.87552      8502.0791      3035.1387      11537.218      61621.375      87120        
     10400   10300          143.74029      294.97241      8541.9019      2965.7329      11507.635      61738.464      87120        
     10500   10400          145.16093      298.97331      8565.4536      3005.959       11571.413      61825.131      87120        
     10600   10500          146.63558      309.0554       8537.2538      3107.3272      11644.581      61759.503      87120        
     10700   10600          148.04444      302.51462      8540.1798      3041.5644      11581.744      61776.267      87120        
     10800   10700          149.47446      299.80018      8528.9994      3014.2727      11543.272      61691.444      87120        
     10900   10800          150.87853      300.33004      8501.0019      3019.6         11520.602      61553.6        87120        
     11000   10900          152.24063      294.05216      8552.2322      2956.4805      11508.713      61758.532      87120        
     11100   11000          153.61615      302.84664      8564.2714      3044.9026      11609.174      61840.078      87120        
     11200   11100          155.01757      306.04478      8561.066       3077.0576      11638.124      61794.996      87120        
     11300   11200          156.42391      295.43937      8587.3901      2970.4279      11557.818      61918.153      87120        
     11400   11300          157.78968      301.2303       8546.0884      3028.6515      11574.74       61758.174      87120        
     11500   11400          159.18776      299.99567      8572.4422      3016.2381      11588.68       61842.437      87120        
     11600   11500          160.56839      300.85331      8556.1001      3024.8611      11580.961      61804.844      87120        
     11700   11600          161.96632      299.44381      8504.7278      3010.6896      11515.417      61645.376      87120        
     11800   11700          163.3517       293.10925      8510.7088      2947.0002      11457.709      61650.801      87120        
     11900   11800          164.70806      303.30437      8489.8575      3049.5047      11539.362      61593.48       87120        
     12000   11900          166.10043      302.76719      8525.0908      3044.1037      11569.195      61635.171      87120        
     12100   12000          167.49015      297.93366      8537.7072      2995.5061      11533.213      61689.193      87120        
     12200   12100          168.88522      294.32089      8551.6269      2959.1824      11510.809      61735.386      87120        
     12300   12200          170.27599      308.86834      8517.4813      3105.4464      11622.928      61649.719      87120        
     12400   12300          171.67188      301.1697       8605.4228      3028.0422      11633.465      61953.572      87120        
     12500   12400          173.08654      300.24894      8555.0006      3018.7846      11573.785      61774.809      87120        
     12600   12500          174.47933      295.03146      8549.4828      2966.3266      11515.809      61754.353      87120        
     12700   12600          175.84205      301.11757      8499.8572      3027.518       11527.375      61604.613      87120        
     12800   12700          177.23258      296.5501       8588.8313      2981.5955      11570.427      61873.708      87120        
     12900   12800          178.62138      305.97305      8587.134       3076.3363      11663.47       61870.876      87120        
     13000   12900          179.98248      300.2659       8596.2989      3018.9551      11615.254      61914.175      87120        
     13100   13000          181.37047      297.83483      8571.7355      2994.5125      11566.248      61814.053      87120        
     13200   13100          182.73842      299.33128      8560.1888      3009.5582      11569.747      61817.976      87120        
     13300   13200          184.12672      300.83773      8559.1779      3024.7045      11583.882      61809.561      87120        
     13400   13300          185.48812      298.72778      8558.2191      3003.4904      11561.71       61761.614      87120        
     13500   13400          186.87614      293.81575      8517.4715      2954.1035      11471.575      61621.372      87120        
     13600   13500          188.24537      289.12506      8544.017       2906.9421      11450.959      61690.906      87120        
     13700   13600          189.63023      300.83379      8536.6133      3024.6649      11561.278      61713.339      87120        
     13800   13700          191.01394      303.63153      8518.865       3052.7941      11571.659      61628.548      87120        
     13900   13800          192.37428      299.95346      8521.7255      3015.8138      11537.539      61640.37       87120        
     14000   13900          193.75422      291.36246      8602.8171      2929.4375      11532.255      61957.473      87120        
     14100   14000          195.1798       306.64168      8542.613       3083.0589      11625.672      61788.684      87120        
     14200   14100          196.61395      304.71228      8548.1164      3063.6602      11611.777      61735.326      87120        
     14300   14200          198.03416      303.68248      8490.2433      3053.3063      11543.55       61542.526      87120        
     14400   14300          199.42594      294.26575      8563.4233      2958.628       11522.051      61780.924      87120        
     14500   14400          200.83602      298.85544      8552.0483      3004.774       11556.822      61772.741      87120        
     14600   14500          202.23941      302.25949      8540.2463      3038.9992      11579.246      61698.706      87120        
     14700   14600          203.63134      291.90007      8570.3053      2934.8428      11505.148      61801.432      87120        
     14800   14700          205.01565      290.56313      8550.843       2921.4008      11472.244      61759.177      87120        
     14900   14800          206.44883      309.37146      8466.5485      3110.5049      11577.053      61502.012      87120        
     15000   14900          207.8441       305.9345       8479.7342      3075.9488      11555.683      61503.474      87120        
     15100   15000          209.23157      294.92903      8543.8502      2965.2968      11509.147      61689.55       87120        
     15200   15100          210.62571      300.51016      8516.7318      3021.4109      11538.143      61567.613      87120        
     15300   15200          212.04684      300.08096      8558.5442      3017.0957      11575.64       61728.886      87120        
     15400   15300          213.46969      310.93851      8558.2081      3126.2605      11684.469      61739.669      87120        
     15500   15400          214.8732       312.72906      8519.0358      3144.2631      11663.299      61614.993      87120        
     15600   15500          216.26746      303.39583      8510.898       3050.4243      11561.322      61613.172      87120        
     15700   15600          217.6445       298.55669      8520.0655      3001.7702      11521.836      61653.347      87120        
     15800   15700          218.99209      295.71393      8546.1181      2973.1883      11519.306      61730.649      87120        
     15900   15800          220.35587      307.5284       8478.1049      3091.9743      11570.079      61512.258      87120        
     16000   15900          221.72016      302.97385      8498.1707      3046.1816      11544.352      61581.086      87120        
     16100   16000          223.08395      289.00899      8549.8264      2905.7751      11455.601      61694.508      87120        
     16200   16100          224.43817      297.76913      8510.6123      2993.8519      11504.464      61574.739      87120        
     16300   16200          225.81324      300.04088      8541.327       3016.6927      11558.02       61745.425      87120        
     16400   16300          227.18841      296.21517      8594.1883      2978.2279      11572.416      61912.304      87120        
     16500   16400          228.544        300.55305      8563.8784      3021.8422      11585.721      61786.114      87120        
     16600   16500          229.92903      298.53832      8561.49        3001.5856      11563.076      61802.323      87120        
     16700   16600          231.30451      298.31943      8498.0827      2999.3848      11497.468      61553.052      87120        
     16800   16700          232.65602      289.84334      8535.3732      2914.1638      11449.537      61657.996      87120        
     16900   16800          234.03294      303.06297      8491.2589      3047.0776      11538.337      61551.922      87120        
     17000   16900          235.4097       300.37047      8577.4793      3020.0065      11597.486      61842.687      87120        
     17100   17000          236.78852      299.60113      8592.8448      3012.2714      11605.116      61888.651      87120        
     17200   17100          238.17797      303.01616      8524.257       3046.607       11570.864      61682.254      87120        
     17300   17200          239.56043      289.8722       8590.7678      2914.4541      11505.222      61902.557      87120        
     17400   17300          240.90643      297.44905      8566.489       2990.6337      11557.123      61844.931      87120        
     17500   17400          242.2859       297.8396       8598.0427      2994.5605      11592.603      61946.95       87120        
     17600   17500          243.65554      303.45863      8554.0233      3051.0557      11605.079      61761.789      87120        
     17700   17600          245.05164      304.85605      8510.5853      3065.1058      11575.691      61612.582      87120        
     17800   17700          246.48393      295.33828      8523.3004      2969.4115      11492.712      61611.767      87120        
     17900   17800          247.86542      292.10861      8558.1782      2936.9395      11495.118      61728.906      87120        
     18000   17900          249.27161      297.26958      8593.2825      2988.8293      11582.112      61855.627      87120        
     18100   18000          250.67592      302.1188       8553.3147      3037.5847      11590.899      61750.046      87120        
     18200   18100          252.08467      298.01464      8558.813       2996.3203      11555.133      61741.583      87120        
     18300   18200          253.47303      298.44258      8533.5687      3000.6229      11534.192      61692.072      87120        
     18400   18300          254.88213      299.2483       8509.5542      3008.7239      11518.278      61609.538      87120        
     18500   18400          256.27759      295.49476      8551.3379      2970.9848      11522.323      61740.48       87120        
     18600   18500          257.66028      303.5953       8544.1737      3052.4298      11596.604      61697.913      87120        
     18700   18600          259.01422      307.51061      8539.6511      3091.7954      11631.447      61722.092      87120        
     18800   18700          260.39107      297.04401      8565.8408      2986.5613      11552.402      61783.972      87120        
     18900   18800          261.76012      300.15514      8502.0646      3017.8415      11519.906      61580.262      87120        
     19000   18900          263.10778      299.02798      8528.5233      3006.5087      11535.032      61658.433      87120        
     19100   19000          264.4747       303.95359      8514.888       3056.0321      11570.92       61619.201      87120        
     19200   19100          265.84295      300.50434      8549.6629      3021.3524      11571.015      61735.5        87120        
     19300   19200          267.21225      301.39353      8542.624       3030.2927      11572.917      61707.501      87120        
     19400   19300          268.58014      299.51236      8567.6363      3011.3788      11579.015      61775.212      87120        
     19500   19400          269.92611      299.2777       8520.198       3009.0195      11529.217      61627.76       87120        
     19600   19500          271.29603      298.08275      8511.5919      2997.0051      11508.597      61588.167      87120        
     19700   19600          272.6658       301.81082      8543.9176      3034.4881      11578.406      61729.471      87120        
     19800   19700          274.01223      303.53499      8579.2712      3051.8234      11631.095      61862.06       87120        
     19900   19800          275.37949      304.90505      8553.1698      3065.5984      11618.768      61793.8        87120        
     20000   19900          276.72453      294.38837      8523.5268      2959.8608      11483.388      61661.383      87120        
     20100   20000          278.08645      293.51816      8549.022       2951.1115      11500.133      61731.944      87120        
     20200   20100          279.45897      300.34016      8558.1753      3019.7018      11577.877      61747.964      87120        
     20300   20200          280.82812      304.76993      8552.5968      3064.2399      11616.837      61748.495      87120        
     20400   20300          282.19746      304.68333      8527.1769      3063.3692      11590.546      61671.496      87120        
     20500   20400          283.54118      294.65503      8517.4672      2962.5419      11480.009      61600.303      87120        
     20600   20500          284.9154       293.99676      8524.3419      2955.9235      11480.265      61639.098      87120        
     20700   20600          286.2823       304.23825      8476.9209      3058.8942      11535.815      61456.751      87120        
     20800   20700          287.65025      301.63829      8525.499       3032.7535      11558.253      61653.073      87120        
     20900   20800          289.0194       300.4872       8557.0579      3021.1802      11578.238      61722.904      87120        
     21000   20900          290.38627      301.96805      8530.3317      3036.069       11566.401      61632.256      87120        
     21100   21000          291.72713      295.05569      8553.5143      2966.5702      11520.085      61695.754      87120        
     21200   21100          293.09511      300.95226      8526.0831      3025.856       11551.939      61631.752      87120        
     21300   21200          294.47662      302.11776      8565.8201      3037.5742      11603.394      61842.261      87120        
     21400   21300          295.85642      302.11903      8578.8898      3037.587       11616.477      61888.7        87120        
     21500   21400          297.22046      299.60494      8500.9268      3012.3096      11513.236      61583.401      87120        
     21600   21500          298.5625       298.87567      8466.3495      3004.9773      11471.327      61401.766      87120        
     21700   21600          299.92713      298.67637      8532.0511      3002.9736      11535.025      61596.239      87120        
     21800   21700          301.29199      302.81087      8541.6744      3044.5429      11586.217      61617.303      87120        
     21900   21800          302.6587       300.08844      8537.4898      3017.1709      11554.661      61615.966      87120        
     22000   21900          304.02388      296.07264      8534.33        2976.795       11511.125      61606.235      87120        
     22100   22000          305.41669      299.03253      8513.372       3006.5545      11519.926      61593.759      87120        
     22200   22100          306.78557      311.71604      8522.2417      3134.0779      11656.32       61705.22       87120        
     22300   22200          308.12576      305.54574      8531.7624      3072.0401      11603.802      61671.882      87120        
     22400   22300          309.49158      296.47801      8544.7088      2980.8706      11525.579      61675.461      87120        
     22500   22400          310.8511       298.08285      8522.9259      2997.0062      11519.932      61611.417      87120        
     22600   22500          312.18528      303.11874      8506.6881      3047.6383      11554.326      61541.669      87120        
     22700   22600          313.54206      303.97715      8526.2017      3056.269       11582.471      61618.409      87120        
     22800   22700          314.89842      300.22208      8516.3501      3018.5145      11534.865      61578.086      87120        
     22900   22800          316.23115      295.54857      8489.2661      2971.5258      11460.792      61488.004      87120        
     23000   22900          317.58848      294.09294      8539.609       2956.8905      11496.5        61678.011      87120        
     23100   23000          318.93442      304.2998       8512.8846      3059.5131      11572.398      61631.015      87120        
     23200   23100          320.28709      298.56091      8557.1617      3001.8127      11558.974      61735.958      87120        
     23300   23200          321.6405       302.16233      8504.5531      3038.0223      11542.575      61541.306      87120        
     23400   23300          322.99492      291.81752      8537.8839      2934.0128      11471.897      61618.943      87120        
     23500   23400          324.32177      295.19932      8525.8987      2968.0144      11493.913      61639.908      87120        
     23600   23500          325.67755      301.89427      8576.6936      3035.3272      11612.021      61860.156      87120        
     23700   23600          327.05221      299.06357      8615.2336      3006.8666      11622.1        62004.328      87120        
     23800   23700          328.40394      301.04752      8564.8119      3026.8138      11591.626      61832.469      87120        
     23900   23800          329.7581       294.66849      8555.6939      2962.6773      11518.371      61768.823      87120        
     24000   23900          331.13621      296.58584      8545.3488      2981.9548      11527.304      61706.51       87120        
     24100   24000          332.4859       305.57602      8577.9933      3072.3445      11650.338      61842.56       87120        
     24200   24100          333.86729      309.96106      8518.5809      3116.4329      11635.014      61668.278      87120        
     24300   24200          335.22628      296.65864      8577.1898      2982.6867      11559.877      61805.707      87120        
     24400   24300          336.5862       299.81006      8541.8909      3014.372       11556.263      61705.173      87120        
     24500   24400          337.94323      301.35002      8548.4034      3029.8552      11578.259      61723.138      87120        
     24600   24500          339.32991      303.96532      8580.7792      3056.1501      11636.929      61803.929      87120        
     24700   24600          340.66489      306.99777      8578.6606      3086.6391      11665.3        61792.397      87120        
     24800   24700          342.02132      301.08554      8528.6492      3027.196       11555.845      61612.56       87120        
     24900   24800          343.37836      297.07109      8531.2411      2986.8337      11518.075      61576.332      87120        
     25000   24900          344.76085      295.13697      8580.7521      2967.3874      11548.14       61768.224      87120        
     25100   25000          346.10609      302.02099      8588.5796      3036.6013      11625.181      61846.224      87120        
     25200   25100          347.46181      304.72121      8548.5541      3063.75        11612.304      61750.499      87120        
     25300   25200          348.81793      299.71399      8554.0857      3013.406       11567.492      61760.013      87120        
     25400   25300          350.17062      302.18571      8528.6555      3038.2574      11566.913      61670.34       87120        
     25500   25400          351.52481      297.66144      8560.6765      2992.7692      11553.446      61768.067      87120        
     25600   25500          352.88314      297.54864      8558.3726      2991.635       11550.008      61740.741      87120        
     25700   25600          354.25925      303.93391      8538.8351      3055.8343      11594.669      61690.337      87120        
     25800   25700          355.61574      304.6893       8524.4153      3063.4291      11587.844      61648.33       87120        
     25900   25800          357.02217      297.67841      8511.1176      2992.9398      11504.057      61570.42       87120        
     26000   25900          358.40677      297.37489      8502.1713      2989.8881      11492.059      61534.19       87120        
     26100   26000          359.78499      301.91472      8521.792       3035.5328      11557.325      61603.11       87120        
     26200   26100          361.16918      308.59313      8505.9227      3102.6794      11608.602      61594.017      87120        
     26300   26200          362.53021      296.42257      8519.2022      2980.3132      11499.515      61566.13       87120        
     26400   26300          363.91959      294.31334      8495.3423      2959.1065      11454.449      61453.686      87120        
     26500   26400          365.32687      297.94081      8539.7333      2995.578       11535.311      61666.645      87120        
     26600   26500          366.73348      300.56304      8576.7746      3021.9427      11598.717      61830.728      87120        
     26700   26600          368.14674      304.53129      8532.5926      3061.8406      11594.433      61674.041      87120        
     26800   26700          369.53693      299.54359      8518.3619      3011.6929      11530.055      61644.4        87120        
     26900   26800          370.91711      297.04708      8498.9854      2986.5922      11485.578      61564.024      87120        
     27000   26900          372.28674      288.05714      8570.7569      2896.2049      11466.962      61799.985      87120        
     27100   27000          373.66072      299.3948       8565.0681      3010.1968      11575.265      61792.198      87120        
     27200   27100          375.00037      307.4138       8535.1907      3090.8221      11626.013      61704.601      87120        
     27300   27200          376.37182      303.55762      8520.1855      3052.051       11572.236      61602.541      87120        
     27400   27300          377.76247      295.68735      8538.2601      2972.9212      11511.181      61599.852      87120        
     27500   27400          379.12599      302.82609      8512.9444      3044.696       11557.64       61551.52       87120        
     27600   27500          380.49325      304.11186      8541.9567      3057.6235      11599.58       61764.456      87120        
     27700   27600          381.89206      304.03167      8522.3086      3056.8172      11579.126      61699.271      87120        
     27800   27700          383.26625      299.61341      8543.9617      3012.3949      11556.357      61724.528      87120        
     27900   27800          384.64152      300.22019      8531.3321      3018.4955      11549.828      61656.524      87120        
     28000   27900          386.04493      298.26984      8560.7971      2998.8862      11559.683      61694.756      87120        
     28100   28000          387.41424      308.89384      8525.1795      3105.7028      11630.882      61619.501      87120        
     28200   28100          388.78688      304.36738      8544.1476      3060.1925      11604.34       61687.272      87120        
     28300   28200          390.15988      295.97678      8531.1816      2975.8312      11507.013      61681.064      87120        
     28400   28300          391.56059      301.60201      8472.2637      3032.3887      11504.652      61476.693      87120        
     28500   28400          392.93759      294.42647      8545.4585      2960.2439      11505.702      61714.639      87120        
     28600   28500          394.3165       303.82273      8556.9665      3054.7165      11611.683      61784.693      87120        
     28700   28600          395.69071      311.33456      8523.2173      3130.2425      11653.46       61677.31       87120        
     28800   28700          397.06946      304.08127      8529.2216      3057.3159      11586.538      61630.491      87120        
     28900   28800          398.44732      298.47076      8529.4848      3000.9063      11530.391      61583.215      87120        
     29000   28900          399.82088      297.14091      8540.1532      2987.5357      11527.689      61679.172      87120        
     29100   29000          401.18657      300.2499       8532.4937      3018.7943      11551.288      61658.062      87120        
     29200   29100          402.55814      302.27964      8538.6838      3039.2018      11577.886      61694.877      87120        
     29300   29200          403.90215      301.5735       8514.19        3032.1021      11546.292      61604.634      87120        
     29400   29300          405.27274      293.03355      8536.0179      2946.2391      11482.257      61646.589      87120        
     29500   29400          406.61939      299.369        8503.5685      3009.9374      11513.506      61536.285      87120        
     29600   29500          407.99283      304.29259      8526.9515      3059.4405      11586.392      61658.342      87120        
     29700   29600          409.36806      306.71101      8527.3375      3083.756       11611.094      61644.975      87120        
     29800   29700          410.74537      296.1111       8504.3567      2977.1816      11481.538      61493.232      87120        
     29900   29800          412.12314      293.2282       8529.2062      2948.1961      11477.402      61575.037      87120        
     30000   29900          413.47745      301.48733      8530.2831      3031.2357      11561.519      61575.684      87120        
     30100   30000          414.85211      306.49519      8496.2593      3081.5861      11577.845      61494.9        87120        
     30200   30100          416.20606      299.35079      8499.6348      3009.7544      11509.389      61456.983      87120        
     30300   30200          417.58319      294.99859      8494.3671      2965.9962      11460.363      61464.51       87120        
     30400   30300          418.96176      302.64649      8465.8916      3042.8902      11508.782      61379.771      87120        
     30500   30400          420.33847      303.66579      8526.6999      3053.1386      11579.838      61604.266      87120        
     30600   30500          421.71888      314.21748      8553.6069      3159.2281      11712.835      61739.759      87120        
     30700   30600          423.11717      309.98506      8528.9874      3116.6742      11645.662      61590.62       87120        
     30800   30700          424.49591      300.22233      8549.9961      3018.517       11568.513      61631.309      87120        
     30900   30800          425.87241      301.83333      8477.0322      3034.7145      11511.747      61405.64       87120        
     31000   30900          427.24895      290.2573       8535.8821      2918.3259      11454.208      61592.711      87120        
     31100   31000          428.6156       297.01235      8525.1466      2986.243       11511.39       61567.795      87120        
     31200   31100          429.99547      299.08842      8570.5162      3007.1164      11577.633      61745.175      87120        
     31300   31200          431.37366      306.12688      8501.8741      3077.883       11579.757      61560.663      87120        
     31400   31300          432.75123      297.61769      8557.6589      2992.3293      11549.988      61689.096      87120        
     31500   31400          434.12641      299.90325      8526.6052      3015.309       11541.914      61592.965      87120        
     31600   31500          435.50731      303.53754      8525.8564      3051.8491      11577.705      61573.76       87120        
     31700   31600          436.8872       307.73013      8540.528       3094.0025      11634.53       61635.694      87120        
     31800   31700          438.26599      297.71199      8561.2847      2993.2774      11554.562      61729.654      87120        
     31900   31800          439.64386      299.36834      8505.9414      3009.9308      11515.872      61491.513      87120        
     32000   31900          441.01957      299.45236      8500.5332      3010.7756      11511.309      61503.938      87120        
     32100   32000          442.3677       303.65043      8509.6335      3052.9841      11562.618      61538.559      87120        
     32200   32100          443.74088      303.7095       8555.6251      3053.578       11609.203      61666.31       87120        
     32300   32200          445.11724      303.38178      8475.8581      3050.283       11526.141      61429.836      87120        
     32400   32300          446.46895      294.38362      8498.2576      2959.813       11458.071      61463.733      87120        
     32500   32400          447.83853      300.92503      8464.6032      3025.5822      11490.185      61364.769      87120        
     32600   32500          449.2149       303.5039       8482.4469      3051.5108      11533.958      61491.183      87120        
     32700   32600          450.58737      298.36529      8563.3216      2999.8458      11563.167      61737.64       87120        
     32800   32700          451.93681      306.17225      8499.2688      3078.3392      11577.608      61550.044      87120        
     32900   32800          453.30911      297.27387      8527.0401      2988.8724      11515.912      61601.052      87120        
     33000   32900          454.68147      297.78663      8500.2077      2994.0279      11494.236      61525.422      87120        
     33100   33000          456.02127      299.68235      8540.1216      3013.0879      11553.21       61627.911      87120        
     33200   33100          457.39708      309.77111      8484.1083      3114.5231      11598.631      61454.892      87120        
     33300   33200          458.79312      299.13605      8511.6366      3007.5953      11519.232      61542.715      87120        
     33400   33300          460.16464      299.49917      8504.9285      3011.2462      11516.175      61558.873      87120        
     33500   33400          461.53512      301.18212      8500.1047      3028.167       11528.272      61541.487      87120        
     33600   33500          462.88661      303.52484      8502.1732      3051.7214      11553.895      61541.67       87120        
     33700   33600          464.27941      302.36535      8545.4854      3040.0636      11585.549      61692.571      87120        
     33800   33700          465.64967      301.89969      8536.9521      3035.3817      11572.334      61669.809      87120        
     33900   33800          467.02125      290.61456      8573.3224      2921.9179      11495.24       61799.904      87120        
     34000   33900          468.39178      301.73145      8507.2157      3033.6901      11540.906      61598.709      87120        
     34100   34000          469.75879      301.75271      8549.9248      3033.9039      11583.829      61703.554      87120        
     34200   34100          471.15502      300.76584      8545.0635      3023.9817      11569.045      61671.867      87120        
     34300   34200          472.5013       291.19976      8522.5353      2927.8016      11450.337      61554.162      87120        
     34400   34300          473.89662      295.13492      8509.4173      2967.3669      11476.784      61517.573      87120        
     34500   34400          475.26984      302.07859      8516.6824      3037.1804      11553.863      61594.177      87120        
     34600   34500          476.67436      302.52423      8520.8177      3041.661       11562.479      61631.223      87120        
     34700   34600          478.04795      295.1747       8568.3923      2967.7668      11536.159      61792.337      87120        
     34800   34700          479.44783      305.28764      8528.7607      3069.445       11598.206      61639.265      87120        
     34900   34800          480.82552      305.86041      8595.5161      3075.2039      11670.72       61880.792      87120        
     35000   34900          482.22379      301.38019      8552.8103      3030.1585      11582.969      61733.887      87120        
     35100   35000          483.58728      293.70327      8550.2724      2952.9726      11503.245      61678.42       87120        
     35200   35100          484.95671      298.15716      8534.9473      2997.7533      11532.701      61702.568      87120        
     35300   35200          486.32655      309.17308      8491.8841      3108.5103      11600.394      61611.083      87120        
     35400   35300          487.72638      301.11342      8545.8121      3027.4763      11573.288      61760.42       87120        
     35500   35400          489.0959       297.57936      8501.6822      2991.9439      11493.626      61568.372      87120        
     35600   35500          490.46695      290.34961      8513.034       2919.254       11432.288      61560.293      87120        
     35700   35600          491.8361       297.45481      8537.8759      2990.6917      11528.568      61648.465      87120        
     35800   35700          493.23425      302.22347      8528.2101      3038.637       11566.847      61619.391      87120        
     35900   35800          494.6065       296.60032      8572.1943      2982.1004      11554.295      61751.877      87120        
     36000   35900          495.9801       303.15115      8477.7923      3047.9642      11525.757      61478.435      87120        
     36100   36000          497.35586      297.16318      8478.1785      2987.7596      11465.938      61511.327      87120        
     36200   36100          498.75627      294.03527      8534.4387      2956.3107      11490.749      61681.436      87120        
     36300   36200          500.15416      305.99619      8517.1822      3076.569       11593.751      61637.021      87120        
     36400   36300          501.54014      304.75315      8510.7892      3064.0712      11574.86       61548.485      87120        
     36500   36400          502.9118       300.00648      8520.7215      3016.3469      11537.068      61547.882      87120        
     36600   36500          504.29017      298.68987      8525.8455      3003.1093      11528.955      61568.045      87120        
     36700   36600          505.65816      301.05379      8541.6035      3026.8768      11568.48       61674.117      87120        
     36800   36700          507.04606      306.03768      8592.1113      3076.9862      11669.097      61898.09       87120        
     36900   36800          508.42454      304.83046      8597.3638      3064.8485      11662.212      61893.986      87120        
     37000   36900          509.79556      305.61285      8491.2955      3072.7148      11564.01       61496.212      87120        
     37100   37000          511.16132      296.84768      8548.0842      2984.5874      11532.672      61658.363      87120        
     37200   37100          512.50995      298.9797       8560.0584      3006.0233      11566.082      61729.362      87120        
     37300   37200          513.90442      305.84199      8536.7777      3075.0186      11611.796      61676.585      87120        
     37400   37300          515.27431      296.4972       8558.5699      2981.0636      11539.634      61712.708      87120        
     37500   37400          516.61936      295.14845      8503.8605      2967.5029      11471.363      61539.173      87120        
     37600   37500          517.98983      298.37321      8492.2153      2999.9255      11492.141      61562.829      87120        
     37700   37600          519.3319       299.9584       8521.7409      3015.8634      11537.604      61664.476      87120        
     37800   37700          520.70054      302.87174      8519.8915      3045.1549      11565.046      61626.645      87120        
     37900   37800          522.07361      299.57363      8552.6093      3011.9949      11564.604      61704.216      87120        
     38000   37900          523.42074      303.1582       8526.1555      3048.035       11574.191      61656.002      87120        
     38100   38000          524.7826       300.64624      8525.2997      3022.7791      11548.079      61599.868      87120        
     38200   38100          526.1487       292.12876      8540.4569      2937.1421      11477.599      61637.94       87120        
     38300   38200          527.49072      296.35046      8547.5245      2979.5882      11527.113      61733.812      87120        
     38400   38300          528.85457      304.07384      8536.6013      3057.2412      11593.842      61729.225      87120        
     38500   38400          530.19241      305.21687      8512.9026      3068.7336      11581.636      61606.77       87120        
     38600   38500          531.56294      297.44674      8525.2698      2990.6105      11515.88       61607.429      87120        
     38700   38600          532.9059       301.24445      8501.9447      3028.7937      11530.738      61523.163      87120        
     38800   38700          534.27019      299.996        8518.2059      3016.2415      11534.447      61593.413      87120        
     38900   38800          535.61559      301.33054      8512.0139      3029.6593      11541.673      61538.079      87120        
     39000   38900          536.99032      301.09072      8516.85        3027.2481      11544.098      61564.19       87120        
     39100   39000          538.33001      296.7392       8535.0204      2983.4967      11518.517      61601.539      87120        
     39200   39100          539.70231      298.99124      8501.7031      3006.1393      11507.842      61471.922      87120        
     39300   39200          541.05236      297.5227       8519.0042      2991.3743      11510.378      61547.285      87120        
     39400   39300          542.42661      307.90643      8492.9675      3095.7751      11588.743      61484.836      87120        
     39500   39400          543.81711      306.20459      8511.1489      3078.6643      11589.813      61550.203      87120        
     39600   39500          545.18668      302.01943      8458.778       3036.5856      11495.364      61387.432      87120        
     39700   39600          546.55573      299.1352       8471.7225      3007.5867      11479.309      61414.863      87120        
     39800   39700          547.90026      304.35595      8452.4918      3060.0776      11512.569      61374.225      87120        
     39900   39800          549.26859      299.44103      8518.3416      3010.6617      11529.003      61568.949      87120        
     40000   39900          550.63616      305.59238      8518.372       3072.509       11590.881      61625.414      87120        
     40100   40000          551.97553      308.19401      8548.1073      3098.6665      11646.774      61693.433      87120        
     40200   40100          553.34403      298.51877      8552.1169      3001.389       11553.506      61665.27       87120        
     40300   40200          554.68969      300.7647       8474.08        3023.9702      11498.05       61402.491      87120        
     40400   40300          556.05988      295.66718      8532.4059      2972.7184      11505.124      61587.989      87120        
     40500   40400          557.43091      305.91416      8478.6908      3075.7442      11554.435      61376.414      87120        
     40600   40500          558.78404      300.86811      8511.203       3025.0099      11536.213      61520.121      87120        
     40700   40600          560.1565       297.12829      8476.46        2987.4087      11463.869      61413.562      87120        
     40800   40700          561.52827      297.11494      8477.4646      2987.2746      11464.739      61416.671      87120        
     40900   40800          562.90045      301.80357      8508.5161      3034.4153      11542.931      61544.491      87120        
     41000   40900          564.27019      308.42798      8490.6843      3101.0189      11591.703      61460.255      87120        
     41100   41000          565.66128      301.74286      8514.1251      3033.8049      11547.93       61549.628      87120        
     41200   41100          567.0375       299.93246      8520.8064      3015.6027      11536.409      61601.06       87120        
     41300   41200          568.43468      299.43135      8522.5356      3010.5643      11533.1        61573.199      87120        
     41400   41300          569.80669      298.36384      8529.2842      2999.8312      11529.115      61618.655      87120        
     41500   41400          571.17557      300.3714       8510.0561      3020.0159      11530.072      61508.485      87120        
     41600   41500          572.54846      301.34873      8465.6764      3029.8422      11495.519      61331.879      87120        
     41700   41600          573.92095      293.3844       8498.6224      2949.7667      11448.389      61417.349      87120        
     41800   41700          575.26978      300.25275      8472.0904      3018.8229      11490.913      61339.666      87120        
     41900   41800          576.64138      303.35267      8517.2985      3049.9904      11567.289      61544.743      87120        
     42000   41900          578.01299      303.3796       8503.1816      3050.2611      11553.443      61496.716      87120        
     42100   42000          579.38701      293.34781      8487.9858      2949.3988      11437.385      61421.562      87120        
     42200   42100          580.76065      296.69732      8470.981       2983.0757      11454.057      61368.544      87120        
     42300   42200          582.1325       297.4604       8530.4365      2990.7479      11521.184      61564.304      87120        
     42400   42300          583.52924      301.48345      8530.5649      3031.1967      11561.762      61551.926      87120        
     42500   42400          584.87758      300.13822      8495.6202      3017.6714      11513.292      61466.677      87120        
     42600   42500          586.25287      292.8373       8519.4497      2944.266       11463.716      61554.808      87120        
     42700   42600          587.62845      298.00817      8503.5805      2996.2553      11499.836      61515.696      87120        
     42800   42700          588.98122      299.30614      8505.7736      3009.3054      11515.079      61540.579      87120        
     42900   42800          590.3546       299.77559      8497.118       3014.0254      11511.143      61441.307      87120        
     43000   42900          591.7321       294.55692      8496.7541      2961.5555      11458.31       61420.933      87120        
     43100   43000          593.09468      291.21829      8504.369       2927.9879      11432.357      61486.657      87120        
     43200   43100          594.44291      304.52178      8483.8196      3061.7449      11545.565      61470.252      87120        
     43300   43200          595.81142      300.54079      8541.0866      3021.719       11562.806      61670.272      87120        
     43400   43300          597.183        302.34579      8505.6264      3039.867       11545.493      61528.879      87120        
     43500   43400          598.55027      298.082        8486.2         2996.9976      11483.198      61400.652      87120        
     43600   43500          599.89809      293.93474      8476.2872      2955.2999      11431.587      61365.777      87120        
     43700   43600          601.26633      296.56989      8526.163       2981.7944      11507.957      61518.552      87120        
     43800   43700          602.633        298.23554      8556.7694      2998.5413      11555.311      61638.304      87120        
     43900   43800          604.00104      297.63122      8555.1747      2992.4653      11547.64       61664.495      87120        
     44000   43900          605.37169      298.30786      8544.3687      2999.2685      11543.637      61680.088      87120        
     44100   44000          606.73544      301.2463       8533.8145      3028.8123      11562.627      61664.319      87120        
     44200   44100          608.132        306.5749       8545.12        3082.3875      11627.507      61698.465      87120        
     44300   44200          609.53626      304.36455      8544.866       3060.1641      11605.03       61673.896      87120        
     44400   44300          610.91228      299.23945      8505.3338      3008.6349      11513.969      61471.91       87120        
     44500   44400          612.30992      295.91637      8527.0894      2975.2237      11502.313      61503.759      87120        
     44600   44500          613.69814      299.42978      8519.6185      3010.5485      11530.167      61504.172      87120        
     44700   44600          615.08176      299.67723      8525.9223      3013.0365      11538.959      61590.469      87120        
     44800   44700          616.48395      301.95343      8505.875       3035.922       11541.797      61545.148      87120        
     44900   44800          617.88403      299.95561      8518.5181      3015.8353      11534.353      61642.597      87120        
     45000   44900          619.26364      297.53349      8542.4664      2991.4827      11533.949      61696.485      87120        
     45100   45000          620.64156      298.9565       8548.0142      3005.7901      11553.804      61693.362      87120        
     45200   45100          622.0502       307.60771      8512.0341      3092.7717      11604.806      61558.783      87120        
     45300   45200          623.42883      301.17643      8548.6687      3028.1099      11576.779      61665.041      87120        
     45400   45300          624.80738      297.07069      8513.2329      2986.8296      11500.062      61538.931      87120        
     45500   45400          626.18865      296.20219      8506.2384      2978.0975      11484.336      61494.119      87120        
     45600   45500          627.57145      304.72219      8512.079       3063.7599      11575.839      61554.546      87120        
     45700   45600          628.97411      303.80492      8541.7861      3054.5374      11596.323      61661.934      87120        
     45800   45700          630.33236      300.4266       8542.5001      3020.5709      11563.071      61646.226      87120        
     45900   45800          631.71705      298.19514      8543.199       2998.1351      11541.334      61631.598      87120        
     46000   45900          633.07599      299.88696      8539.4188      3015.1452      11554.564      61660.093      87120        
     46100   46000          634.44671      307.66581      8517.9064      3093.3558      11611.262      61597.136      87120        
     46200   46100          635.82944      308.74508      8565.9708      3104.2071      11670.178      61754.714      87120        
     46300   46200          637.18508      301.97183      8530.7687      3036.107       11566.876      61578.517      87120        
     46400   46300          638.56032      298.82245      8517.0405      3004.4423      11521.483      61522.729      87120        
     46500   46400          639.94051      304.30874      8493.8919      3059.603       11553.495      61438.979      87120        
     46600   46500          641.32525      304.38462      8527.0525      3060.3659      11587.418      61576.802      87120        
     46700   46600          642.70456      295.57286      8553.2225      2971.77        11524.992      61718.475      87120        
     46800   46700          644.05795      295.41887      8515.1421      2970.2218      11485.364      61619.413      87120        
     46900   46800          645.43112      297.9224       8544.068       2995.3929      11539.461      61721.462      87120        
     47000   46900          646.8077       302.57334      8529.5311      3042.1548      11571.686      61624.386      87120        
     47100   47000          648.1819       299.20488      8554.54        3008.2874      11562.827      61685.764      87120        
     47200   47100          649.53811      297.05388      8564.5431      2986.6606      11551.204      61734.019      87120        
     47300   47200          650.89255      302.74656      8559.7405      3043.8964      11603.637      61729.987      87120        
     47400   47300          652.2753       304.60861      8616.1643      3062.6179      11678.782      61928.922      87120        
     47500   47400          653.63164      304.11133      8521.9387      3057.6181      11579.557      61614.855      87120        
     47600   47500          655.01765      299.27735      8513.073       3009.016       11522.089      61531.536      87120        
     47700   47600          656.37541      296.93608      8549.8569      2985.4762      11535.333      61641.356      87120        
     47800   47700          657.75581      304.03198      8532.9064      3056.8203      11589.727      61625.778      87120        
     47900   47800          659.13746      305.94121      8528.9578      3076.0162      11604.974      61582.329      87120        
     48000   47900          660.51552      300.29319      8487.4564      3019.2295      11506.686      61444.154      87120        
     48100   48000          661.88282      291.55703      8540.5572      2931.3938      11471.951      61608.167      87120        
     48200   48100          663.23786      302.97898      8483.8755      3046.2332      11530.109      61425.217      87120        
     48300   48200          664.61446      300.33417      8530.6611      3019.6415      11550.303      61583.757      87120        
     48400   48300          665.99003      298.89059      8547.312       3005.1274      11552.439      61672.416      87120        
     48500   48400          667.38973      302.07837      8533.0928      3037.1782      11570.271      61622.196      87120        
     48600   48500          668.76933      302.50125      8504.8477      3041.4299      11546.278      61518.028      87120        
     48700   48600          670.17165      295.7307       8512.2906      2973.3569      11485.647      61478.172      87120        
     48800   48700          671.54619      299.77695      8500.468       3014.0391      11514.507      61474.135      87120        
     48900   48800          672.92393      299.03278      8581.0917      3006.557       11587.649      61786.826      87120        
     49000   48900          674.3374       305.77356      8518.691       3074.3306      11593.022      61524.886      87120        
     49100   49000          675.71979      300.58442      8513.4875      3022.1576      11535.645      61505.205      87120        
     49200   49100          677.10976      300.31456      8497.4868      3019.4444      11516.931      61489.48       87120        
     49300   49200          678.4735       301.81535      8490.6064      3034.5337      11525.14       61455.933      87120        
     49400   49300          679.83295      299.00519      8527.8054      3006.2795      11534.085      61584.095      87120        
     49500   49400          681.19037      306.15399      8539.227       3078.1556      11617.383      61714.34       87120        
     49600   49500          682.54989      308.86551      8553.5399      3105.418       11658.958      61753.064      87120        
     49700   49600          683.91009      301.41073      8534.3782      3030.4655      11564.844      61667.461      87120        
     49800   49700          685.27126      298.13657      8518.0575      2997.5462      11515.604      61574.877      87120        
     49900   49800          686.63164      302.54212      8496.4679      3041.8408      11538.309      61459.366      87120        
     50000   49900          687.99301      301.92519      8528.2698      3035.638       11563.908      61549.628      87120        
     50100   50000          689.34304      299.2103       8513.1394      3008.3419      11521.481      61520.865      87120        
     50200   50100          690.72199      290.22086      8531.5304      2917.9596      11449.49       61598.173      87120        
     50300   50200          692.07814      298.31813      8515.4489      2999.3717      11514.821      61590.092      87120        
     50400   50300          693.43385      300.17087      8551.1272      3017.9997      11569.127      61685.721      87120        
     50500   50400          694.81402      299.56212      8561.3732      3011.8791      11573.252      61713.069      87120        
     50600   50500          696.17385      304.68211      8502.0906      3063.3569      11565.448      61533.446      87120        
     50700   50600          697.5298       298.6061       8487.9945      3002.267       11490.262      61456.631      87120        
     50800   50700          698.88456      290.35166      8541.1604      2919.2746      11460.435      61597.275      87120        
     50900   50800          700.23845      302.47749      8542.1394      3041.1911      11583.33       61611.064      87120        
     51000   50900          701.59224      303.71286      8527.9659      3053.6118      11581.578      61635.631      87120        
     51100   51000          702.94214      298.66552      8541.3448      3002.8645      11544.209      61669.543      87120        
     51200   51100          704.29713      293.15354      8559.8437      2947.4455      11507.289      61714.882      87120        
     51300   51200          705.65065      299.74541      8514.0141      3013.722       11527.736      61504.773      87120        
     51400   51300          707.001        302.20627      8549.4256      3038.4642      11587.89       61657.749      87120        
     51500   51400          708.34819      304.63934      8524.9208      3062.9269      11587.848      61590.821      87120        
     51600   51500          709.70102      297.65172      8492.6627      2992.6715      11485.334      61453.758      87120        
     51700   51600          711.04753      296.56934      8482.7356      2981.7889      11464.524      61420.537      87120        
     51800   51700          712.39801      301.79157      8501.0854      3034.2947      11535.38       61464.71       87120        
     51900   51800          713.74748      302.39718      8515.0428      3040.3836      11555.426      61555.935      87120        
     52000   51900          715.07274      300.4587       8502.038       3020.8936      11522.932      61470.655      87120        
     52100   52000          716.41532      298.59136      8497.6985      3002.1188      11499.817      61443.163      87120        
     52200   52100          717.76735      299.09218      8509.758       3007.1542      11516.912      61502.502      87120        
     52300   52200          719.14345      307.74155      8512.1318      3094.1173      11606.249      61519.366      87120        
     52400   52300          720.49395      304.91587      8495.0991      3065.7072      11560.806      61443.175      87120        
     52500   52400          721.8438       293.09472      8531.4042      2946.8542      11478.258      61541.632      87120        
     52600   52500          723.19546      300.19269      8505.2768      3018.2191      11523.496      61423.832      87120        
     52700   52600          724.52467      304.06746      8497.7058      3057.1771      11554.883      61422.584      87120        
     52800   52700          725.87356      299.27184      8500.962       3008.9606      11509.923      61465.662      87120        
     52900   52800          727.22171      293.69824      8498.1267      2952.9221      11451.049      61444.657      87120        
     53000   52900          728.57212      298.41921      8474.9867      3000.3879      11475.375      61347.329      87120        
     53100   53000          729.89706      307.36095      8502.858       3090.2907      11593.149      61470.611      87120        
     53200   53100          731.25147      306.00217      8478.5017      3076.6292      11555.131      61375.568      87120        
     53300   53200          732.60231      295.19348      8517.7129      2967.9556      11485.668      61481.151      87120        
     53400   53300          733.95595      298.32153      8492.7829      2999.4059      11492.189      61364.122      87120        
     53500   53400          735.31333      298.30388      8530.048       2999.2284      11529.276      61523.291      87120        
     53600   53500          736.67379      309.44552      8514.3591      3111.2495      11625.609      61543.531      87120        
     53700   53600          738.03085      301.6765       8544.5086      3033.1377      11577.646      61631.579      87120        
     53800   53700          739.38407      304.21744      8458.369       3058.685       11517.054      61327.745      87120        
     53900   53800          740.71145      297.40314      8514.5056      2990.1722      11504.678      61506.977      87120        
     54000   53900          742.06529      300.27895      8539.1087      3019.0863      11558.195      61554.335      87120        
     54100   54000          743.41479      311.15244      8458.4635      3128.4114      11586.875      61315.428      87120        
     54200   54100          744.77058      295.94143      8495.0934      2975.4757      11470.569      61397.585      87120        
     54300   54200          746.10505      295.05598      8507.4643      2966.5732      11474.038      61463.888      87120        
     54400   54300          747.45995      306.12031      8456.0727      3077.8169      11533.89       61339.902      87120        
     54500   54400          748.7896       304.75348      8454.7803      3064.0745      11518.855      61299.205      87120        
     54600   54500          750.14912      292.93051      8489.8162      2945.2031      11435.019      61415.46       87120        
     54700   54600          751.50212      292.5399       8503.7299      2941.2758      11445.006      61462.743      87120        
     54800   54700          752.84988      300.78854      8530.4058      3024.2098      11554.616      61530.418      87120        
     54900   54800          754.20994      299.63125      8540.703       3012.5742      11553.277      61559.105      87120        
     55000   54900          755.58726      298.97292      8511.525       3005.9551      11517.48       61483.238      87120        
     55100   55000          756.92983      297.49677      8507.871       2991.1135      11498.984      61471.437      87120        
     55200   55100          758.3171       301.65062      8506.7608      3032.8775      11539.638      61509.56       87120        
     55300   55200          759.69918      308.17906      8511.7572      3098.5162      11610.273      61548.838      87120        
     55400   55300          761.08191      299.50469      8573.704       3011.3017      11585.006      61742.028      87120        
     55500   55400          762.49445      296.55512      8518.3184      2981.646       11499.964      61540.951      87120        
     55600   55500          763.88442      299.28986      8514.7947      3009.1418      11523.937      61527.291      87120        
     55700   55600          765.285        301.76205      8526.3756      3033.9978      11560.373      61507.586      87120        
     55800   55700          766.67785      298.2757       8536.2787      2998.9451      11535.224      61601.425      87120        
     55900   55800          768.08771      293.1552       8501.2395      2947.4622      11448.702      61474.315      87120        
     56000   55900          769.47147      293.73906      8478.7191      2953.3325      11432.052      61371.821      87120        
     56100   56000          770.84185      302.79746      8516.84        3044.4081      11561.248      61484.324      87120        
     56200   56100          772.22059      305.00731      8501.4714      3066.6266      11568.098      61453.034      87120        
     56300   56200          773.57101      296.52349      8533.5639      2981.3279      11514.892      61556.93       87120        
     56400   56300          774.95215      294.22717      8543.8765      2958.2401      11502.117      61563.369      87120        
     56500   56400          776.326        301.23129      8563.7349      3028.6614      11592.396      61645.632      87120        
     56600   56500          777.70268      307.44307      8536.0325      3091.1163      11627.149      61566.184      87120        
     56700   56600          779.07707      305.99731      8479.3497      3076.5803      11555.93       61418.998      87120        
     56800   56700          780.45434      296.67925      8513.0023      2982.894       11495.896      61576.907      87120        
     56900   56800          781.83345      300.08978      8509.4729      3017.1844      11526.657      61550.974      87120        
     57000   56900          783.22145      306.96708      8487.3783      3086.3306      11573.709      61431.562      87120        
     57100   57000          784.59977      297.98249      8524.6135      2995.9971      11520.611      61526.333      87120        
     57200   57100          785.9815       294.28739      8494.746       2958.8456      11453.592      61428.098      87120        
     57300   57200          787.38646      289.92343      8539.1368      2914.9691      11454.106      61539.907      87120        
     57400   57300          788.77338      303.87391      8521.4456      3055.2311      11576.677      61548.752      87120        
     57500   57400          790.18512      304.8271       8521.6755      3064.8147      11586.49       61549.092      87120        
     57600   57500          791.56501      298.5032       8524.1635      3001.2325      11525.396      61543.558      87120        
     57700   57600          792.93734      296.17706      8504.0647      2977.8448      11481.909      61483.123      87120        
     57800   57700          794.33305      297.367        8512.0257      2989.8088      11501.835      61508.718      87120        
     57900   57800          795.70452      303.77262      8551.8392      3054.2127      11606.052      61615.873      87120        
     58000   57900          797.104        300.88097      8566.1959      3025.1392      11591.335      61654.217      87120        
     58100   58000          798.47046      295.98429      8558.5092      2975.9066      11534.416      61634.058      87120        
     58200   58100          799.87756      295.77631      8538.946       2973.8156      11512.762      61595.432      87120        
     58300   58200          801.28366      297.60088      8531.4162      2992.1603      11523.576      61597.048      87120        
     58400   58300          802.68931      300.03657      8534.6876      3016.6494      11551.337      61600.613      87120        
     58500   58400          804.09351      309.3864       8519.6203      3110.6551      11630.275      61551.373      87120        
     58600   58500          805.52677      305.57361      8554.0883      3072.3203      11626.409      61651.271      87120        
     58700   58600          806.92912      297.92334      8520.6077      2995.4024      11516.01       61516.268      87120        
     58800   58700          808.3118       297.84497      8496.0245      2994.6144      11490.639      61445.219      87120        
     58900   58800          809.712        296.47323      8518.9658      2980.8226      11499.788      61514.272      87120        
     59000   58900          811.08274      302.54992      8543.8144      3041.9192      11585.734      61660.413      87120        
     59100   59000          812.46859      306.58875      8535.1812      3082.5268      11617.708      61639.211      87120        
     59200   59100          813.85516      302.06798      8524.3068      3037.0737      11561.38       61548.451      87120        
     59300   59200          815.27116      299.61099      8509.1586      3012.3705      11521.529      61476.158      87120        
     59400   59300          816.67969      299.36896      8496.5729      3009.937       11506.51       61417.61       87120        
     59500   59400          818.07988      299.61956      8473.6424      3012.4566      11486.099      61321.487      87120        
     59600   59500          819.49062      297.06021      8445.8648      2986.7242      11432.589      61206.596      87120        
     59700   59600          820.8985       296.21377      8480.6103      2978.2139      11458.824      61354.457      87120        
     59800   59700          822.33177      302.24375      8518.6975      3038.841       11557.538      61536.88       87120        
     59900   59800          823.76767      301.89303      8535.2489      3035.3147      11570.564      61636.695      87120        
     60000   59900          825.16641      297.86014      8549.9806      2994.767       11544.748      61664.191      87120        
     60100   60000          826.55262      296.13987      8503.4532      2977.4709      11480.924      61420.116      87120        
     60200   60100          827.9468       292.17917      8479.5002      2937.6489      11417.149      61299.105      87120        
     60300   60200          829.34105      296.75704      8515.0222      2983.6761      11498.698      61468.031      87120        
     60400   60300          830.74082      298.94958      8548.8361      3005.7205      11554.557      61620.459      87120        
     60500   60400          832.14498      304.13658      8520.8923      3057.872       11578.764      61592.493      87120        
     60600   60500          833.5509       303.48682      8495.7893      3051.3391      11547.128      61500.045      87120        
     60700   60600          834.92747      294.7115       8513.1672      2963.1097      11476.277      61536.3        87120        
     60800   60700          836.32428      297.29754      8504.2844      2989.1104      11493.395      61506.14       87120        
     60900   60800          837.72575      306.4329       8538.245       3080.9598      11619.205      61589.959      87120        
     61000   60900          839.12401      305.46722      8535.4226      3071.2507      11606.673      61547.124      87120        
     61100   61000          840.49257      299.17256      8522.4079      3007.9624      11530.37       61502.352      87120        
     61200   61100          841.89078      298.55178      8500.3912      3001.7209      11502.112      61444.708      87120        
     61300   61200          843.26827      298.53514      8525.9814      3001.5536      11527.535      61557.623      87120        
     61400   61300          844.67224      301.41229      8522.3878      3030.4812      11552.869      61565.653      87120        
     61500   61400          846.07672      301.8748       8495.8234      3035.1314      11530.955      61446.964      87120        
     61600   61500          847.46021      297.32992      8491.9748      2989.436       11481.411      61414.114      87120        
     61700   61600          848.86393      299.3241       8522.1329      3009.486       11531.619      61501.362      87120        
     61800   61700          850.24903      304.17593      8539.5381      3058.2676      11597.806      61643.534      87120        
     61900   61800          851.65846      302.08839      8554.3066      3037.2789      11591.585      61698.59       87120        
     62000   61900          853.0676       295.73807      8524.2777      2973.4311      11497.709      61545.449      87120        
     62100   62000          854.45505      294.72769      8490.0875      2963.2724      11453.36       61391.018      87120        
     62200   62100          855.85249      296.09577      8521.3819      2977.0275      11498.409      61487.691      87120        
     62300   62200          857.23322      295.80334      8551.1507      2974.0874      11525.238      61598.55       87120        
     62400   62300          858.64685      299.96475      8542.1961      3015.9273      11558.123      61624.838      87120        
     62500   62400          860.05015      304.18051      8554.5433      3058.3136      11612.857      61692.957      87120        
     62600   62500          861.42164      306.29346      8526.8322      3079.5579      11606.39       61583.831      87120        
     62700   62600          862.81333      289.48601      8601.1387      2910.5712      11511.71       61784.686      87120        
     62800   62700          864.18341      302.37974      8491.9286      3040.2082      11532.137      61400.677      87120        
     62900   62800          865.58885      296.62137      8530.9339      2982.312       11513.246      61542.096      87120        
     63000   62900          866.98264      295.89899      8518.6229      2975.049       11493.672      61561.164      87120        
     63100   63000          868.34231      301.08626      8484.1529      3027.2032      11511.356      61455.686      87120        
     63200   63100          869.7487       306.20112      8478.7466      3078.6294      11557.376      61447.331      87120        
     63300   63200          871.12901      299.50967      8509.2611      3011.3518      11520.613      61495.778      87120        
     63400   63300          872.53346      288.25755      8562.8357      2898.2199      11461.056      61615.885      87120        
     63500   63400          873.90642      299.24433      8514.7915      3008.684       11523.476      61450.772      87120        
     63600   63500          875.30981      300.66618      8561.1154      3022.9797      11584.095      61636.798      87120        
     63700   63600          876.70914      303.21179      8509.8064      3048.5739      11558.38       61454.756      87120        
     63800   63700          878.11823      299.42927      8516.0047      3010.5434      11526.548      61516.61       87120        
     63900   63800          879.50284      303.10132      8466.4681      3047.4632      11513.931      61372.809      87120        
     64000   63900          880.8862       300.08802      8455.6509      3017.1667      11472.818      61340.89       87120        
     64100   64000          882.2544       293.63746      8502.1873      2952.3109      11454.498      61433.184      87120        
     64200   64100          883.64985      304.65552      8488.14        3063.0896      11551.23       61339.691      87120        
     64300   64200          885.01158      302.99284      8538.4945      3046.3725      11584.867      61524.994      87120        
     64400   64300          886.4002       302.82153      8511.0877      3044.6501      11555.738      61481.754      87120        
     64500   64400          887.79297      293.87912      8494.1196      2954.7407      11448.86       61446.805      87120        
     64600   64500          889.19336      295.18354      8484.5815      2967.8557      11452.437      61386.391      87120        
     64700   64600          890.59895      296.77233      8523.2516      2983.8298      11507.081      61525.211      87120        
     64800   64700          891.96953      301.72504      8498.3793      3033.6257      11532.005      61425.103      87120        
     64900   64800          893.37501      300.23963      8499.265       3018.691       11517.956      61423.658      87120        
     65000   64900          894.7799       296.89384      8503.7782      2985.0515      11488.83       61454.324      87120        
     65100   65000          896.13904      297.27284      8539.1879      2988.8621      11528.05       61616.205      87120        
     65200   65100          897.53158      304.04807      8560.2739      3056.9821      11617.256      61693.608      87120        
     65300   65200          898.92967      303.85296      8537.4431      3055.0204      11592.464      61633.784      87120        
     65400   65300          900.3228       297.67131      8523.4576      2992.8684      11516.326      61596.737      87120        
     65500   65400          901.70531      299.60498      8508.5006      3012.3101      11520.811      61487.365      87120        
     65600   65500          903.09622      303.08597      8490.0464      3047.3088      11537.355      61433.911      87120        
     65700   65600          904.48708      303.21712      8496.6438      3048.6275      11545.271      61396.275      87120        
     65800   65700          905.85171      295.90972      8541.9826      2975.1569      11517.139      61551.088      87120        
     65900   65800          907.244        297.05749      8516.0171      2986.6969      11502.714      61475.311      87120        
     66000   65900          908.63664      302.62085      8518.7577      3042.6324      11561.39       61546.112      87120        
     66100   66000          910.01399      306.76827      8536.0767      3084.3318      11620.408      61661.47       87120        
     66200   66100          911.39786      305.88977      8542.643       3075.499       11618.142      61655.361      87120        
     66300   66200          912.78506      293.53983      8549.3131      2951.3294      11500.642      61606.781      87120        
     66400   66300          914.14786      293.37697      8537.4397      2949.692       11487.132      61497.889      87120        
     66500   66400          915.53521      301.47817      8505.916       3031.1437      11537.06       61407.993      87120        
     66600   66500          916.92571      303.81998      8536.7954      3054.6888      11591.484      61538.065      87120        
     66700   66600          918.28852      307.41348      8501.0415      3090.8188      11591.86       61435.81       87120        
     66800   66700          919.67771      293.1877       8500.8252      2947.7889      11448.614      61453.904      87120        
     66900   66800          921.06707      297.28327      8505.8537      2988.9669      11494.821      61494.71       87120        
     67000   66900          922.46069      306.38422      8484.7787      3080.4703      11565.249      61421.965      87120        
     67100   67000          923.8669       301.97964      8511.3517      3036.1855      11547.537      61516.6        87120        
     67200   67100          925.25638      298.70742      8481.6287      3003.2858      11484.915      61378.113      87120        
     67300   67200          926.64982      292.52464      8497.2508      2941.1224      11438.373      61390.079      87120        
     67400   67300          928.03887      302.60852      8502.8676      3042.5085      11545.376      61434.154      87120        
     67500   67400          929.45747      304.76299      8533.6507      3064.1701      11597.821      61607.87       87120        
     67600   67500          930.85516      298.64469      8535.2524      3002.6551      11537.907      61597.166      87120        
     67700   67600          932.24718      296.8331       8516.9671      2984.4408      11501.408      61552.9        87120        
     67800   67700          933.67653      300.66055      8505.8934      3022.923       11528.816      61493.407      87120        
     67900   67800          935.08163      305.04859      8540.8236      3067.0416      11607.865      61613.59       87120        
     68000   67900          936.47797      304.44345      8563.8824      3060.9573      11624.84       61696.832      87120        
     68100   68000          937.85604      296.07836      8540.1042      2976.8525      11516.957      61571.023      87120        
     68200   68100          939.27435      294.68196      8524.2436      2962.8127      11487.056      61494.449      87120        
     68300   68200          940.67655      293.72829      8563.5333      2953.2242      11516.757      61634.723      87120        
     68400   68300          942.10492      304.96213      8536.3947      3066.1723      11602.567      61602.407      87120        
     68500   68400          943.5605       307.69778      8531.1258      3093.6773      11624.803      61564.994      87120        
     68600   68500          944.96345      295.14411      8505.1187      2967.4592      11472.578      61390.992      87120        
     68700   68600          946.37885      294.19623      8521.0316      2957.929       11478.961      61487.815      87120        
     68800   68700          947.79661      300.8705       8538.6157      3025.0339      11563.65       61551.903      87120        
     68900   68800          949.21727      308.25383      8487.6361      3099.268       11586.904      61375.08       87120        
     69000   68900          950.61356      298.56758      8500.3513      3001.8797      11502.231      61431.918      87120        
     69100   69000          951.99257      293.6791       8527.0899      2952.7297      11479.82       61504.081      87120        
     69200   69100          953.40693      298.56054      8521.4216      3001.8089      11523.231      61462.729      87120        
     69300   69200          954.84116      303.55811      8485.8105      3052.0559      11537.866      61339.693      87120        
     69400   69300          956.20446      292.21574      8587.3989      2938.0166      11525.415      61719.307      87120        
     69500   69400          957.59162      299.98967      8529.9153      3016.1779      11546.093      61548.633      87120        
     69600   69500          958.99905      295.83749      8565.9152      2974.4306      11540.346      61697.949      87120        
     69700   69600          960.39934      303.75642      8528.8902      3054.0498      11582.94       61579.922      87120        
     69800   69700          961.77514      306.02641      8553.7359      3076.8729      11630.609      61698.518      87120        
     69900   69800          963.16997      300.69953      8526.2819      3023.3149      11549.597      61572.036      87120        
     70000   69900          964.56454      294.02851      8522.1728      2956.2428      11478.416      61483.446      87120        
     70100   70000          965.92516      298.6388       8518.6083      3002.5958      11521.204      61487.189      87120        
     70200   70100          967.31594      300.7343       8551.6675      3023.6645      11575.332      61643.727      87120        
     70300   70200          968.68241      301.5709       8563.6554      3032.076       11595.731      61667.161      87120        
     70400   70300          970.07348      291.5642       8555.9854      2931.4659      11487.451      61656.555      87120        
     70500   70400          971.46428      294.34701      8519.7915      2959.445       11479.236      61562.593      87120        
     70600   70500          972.83863      303.70638      8485.0952      3053.5466      11538.642      61422.32       87120        
     70700   70600          974.2322       301.47073      8514.909       3031.0688      11545.978      61541.063      87120        
     70800   70700          975.60802      296.56261      8564.0483      2981.7213      11545.77       61653.061      87120        
     70900   70800          976.98816      303.12521      8570.5307      3047.7034      11618.234      61662.08       87120        
     71000   70900          978.39345      311.52206      8511.8178      3132.1277      11643.945      61456.105      87120        
     71100   71000          979.75292      299.91625      8512.4373      3015.4396      11527.877      61430.106      87120        
     71200   71100          981.11998      296.55702      8518.7761      2981.665       11500.441      61423.43       87120        
     71300   71200          982.48981      298.19093      8535.7108      2998.0928      11533.804      61538.851      87120        
     71400   71300          983.87548      303.21839      8542.4078      3048.6402      11591.048      61646.71       87120        
     71500   71400          985.21561      299.72276      8544.27        3013.4943      11557.764      61622.481      87120        
     71600   71500          986.57023      292.88707      8528.8951      2944.7663      11473.661      61528.871      87120        
     71700   71600          987.92928      299.027        8498.1499      3006.4989      11504.649      61427.135      87120        
     71800   71700          989.28867      299.53568      8534.9627      3011.6133      11546.576      61552.91       87120        
     71900   71800          990.65816      299.84105      8542.3846      3014.6835      11557.068      61530.977      87120        
     72000   71900          992.0309       302.55376      8503.2052      3041.9579      11545.163      61408.091      87120        
     72100   72000          993.38772      299.77738      8493.9894      3014.0434      11508.033      61378.621      87120        
     72200   72100          994.7269       293.57679      8511.3089      2951.701       11463.01       61422.467      87120        
     72300   72200          996.06852      294.96862      8524.5878      2965.6949      11490.283      61501.449      87120        
     72400   72300          997.44584      305.22123      8511.0338      3068.7773      11579.811      61409.379      87120        
     72500   72400          998.81866      302.36803      8518.6908      3040.0905      11558.781      61419.176      87120        
     72600   72500          1000.1604      297.09697      8503.2434      2987.0939      11490.337      61410.244      87120        
     72700   72600          1001.5258      298.59697      8475.0542      3002.1752      11477.229      61325.208      87120        
     72800   72700          1002.876       307.73253      8490.0288      3094.0266      11584.055      61413.454      87120        
     72900   72800          1004.2556      303.38547      8558.799       3050.3201      11609.119      61632.383      87120        
     73000   72900          1005.636       299.71505      8530.9602      3013.4168      11544.377      61480.641      87120        
     73100   73000          1007.0331      296.79569      8529.577       2984.0647      11513.642      61483.012      87120        
     73200   73100          1008.401       297.81215      8527.686       2994.2845      11521.97       61506.616      87120        
     73300   73200          1009.7647      298.66633      8522.5847      3002.8726      11525.457      61473.867      87120        
     73400   73300          1011.1362      299.58512      8488.6703      3012.1104      11500.781      61364.806      87120        
     73500   73400          1012.5025      293.14123      8521.1629      2947.3217      11468.485      61530.383      87120        
     73600   73500          1013.8637      303.45414      8484.588       3051.0105      11535.599      61354.573      87120        
     73700   73600          1015.2198      303.89371      8512.1651      3055.4301      11567.595      61455.61       87120        
     73800   73700          1016.5917      299.5204       8545.779       3011.4596      11557.239      61584.888      87120        
     73900   73800          1017.9646      300.81424      8524.5044      3024.4683      11548.973      61507.982      87120        
     74000   73900          1019.3116      302.53585      8498.0541      3041.7778      11539.832      61415.724      87120        
     74100   74000          1020.6706      302.8795       8513.0282      3045.2329      11558.261      61469.493      87120        
     74200   74100          1022.0111      304.84862      8492.213       3065.031       11557.244      61415.728      87120        
     74300   74200          1023.3765      292.11792      8537.0528      2937.0331      11474.086      61565.506      87120        
     74400   74300          1024.745       296.86582      8535.1409      2984.7698      11519.911      61539.252      87120        
     74500   74400          1026.1002      302.55656      8533.4476      3041.986       11575.434      61519.389      87120        
     74600   74500          1027.4546      302.59066      8532.4074      3042.3289      11574.736      61520.702      87120        
     74700   74600          1028.8025      301.1822       8524.9651      3028.1678      11553.133      61486.544      87120        
     74800   74700          1030.1297      298.76193      8504.301       3003.8338      11508.135      61390.216      87120        
     74900   74800          1031.4838      291.71622      8513.974       2932.9943      11446.968      61430.683      87120        
     75000   74900          1032.8418      302.00856      8471.2614      3036.4762      11507.738      61302.011      87120        
     75100   75000          1034.1956      309.46994      8465.8852      3111.4951      11577.38       61303.626      87120        
     75200   75100          1035.5588      300.34758      8519.6579      3019.7763      11539.434      61459.47       87120        
     75300   75200          1036.9182      296.83218      8528.5806      2984.4316      11513.012      61415.174      87120        
     75400   75300          1038.2806      299.94836      8497.8667      3015.7625      11513.629      61322.844      87120        
     75500   75400          1039.6406      297.27411      8524.6259      2988.8748      11513.501      61411.72       87120        
     75600   75500          1041.0037      298.26531      8544.5408      2998.8407      11543.381      61504.223      87120        
     75700   75600          1042.3541      303.45008      8542.7451      3050.9697      11593.715      61563.491      87120        
     75800   75700          1043.7269      303.03018      8525.6243      3046.7479      11572.372      61471.516      87120        
     75900   75800          1045.077       293.05224      8506.5797      2946.427       11453.007      61385.556      87120        
     76000   75900          1046.4317      296.81605      8501.0587      2984.2694      11485.328      61387.809      87120        
     76100   76000          1047.7825      301.54255      8518.1869      3031.7909      11549.978      61455.851      87120        
     76200   76100          1049.16        304.4631       8518.0354      3061.155       11579.19       61482.494      87120        
     76300   76200          1050.5132      298.81576      8542.0004      3004.375       11546.375      61579.095      87120        
     76400   76300          1051.8672      289.70822      8549.9092      2912.8054      11462.715      61558.929      87120        
     76500   76400          1053.2462      297.7688       8486.3774      2993.8486      11480.226      61326.387      87120        
     76600   76500          1054.6022      306.84324      8508.1671      3085.0855      11593.253      61416.014      87120        
     76700   76600          1055.9834      302.21812      8539.8922      3038.5832      11578.475      61553.21       87120        
     76800   76700          1057.3386      297.60772      8531.7582      2992.2291      11523.987      61515.448      87120        
     76900   76800          1058.7083      292.98451      8560.0079      2945.7461      11505.754      61604.686      87120        
     77000   76900          1060.0932      298.77269      8529.2548      3003.942       11533.197      61509.823      87120        
     77100   77000          1061.4428      301.83605      8507.365       3034.7419      11542.107      61462.86       87120        
     77200   77100          1062.8269      296.4828       8515.8891      2980.9188      11496.808      61474.16       87120        
     77300   77200          1064.1851      298.92463      8496.7936      3005.4696      11502.263      61385.009      87120        
     77400   77300          1065.5467      302.03053      8518.0117      3036.6972      11554.709      61416.322      87120        
     77500   77400          1066.9072      306.0336       8485.5594      3076.9451      11562.505      61329.751      87120        
     77600   77500          1068.2626      299.41381      8495.0767      3010.388       11505.465      61357.033      87120        
     77700   77600          1069.6131      293.3382       8505.9369      2949.3022      11455.239      61392.074      87120        
     77800   77700          1070.9746      296.03427      8485.9961      2976.4092      11462.405      61324.239      87120        
     77900   77800          1072.3402      304.89293      8500.8957      3065.4766      11566.372      61395.935      87120        
     78000   77900          1073.6785      302.95966      8502.5513      3046.0389      11548.59       61379.923      87120        
     78100   78000          1075.03        295.18055      8505.3122      2967.8256      11473.138      61360.537      87120        
     78200   78100          1076.3881      298.30003      8473.0839      2999.1897      11472.274      61278.881      87120        
     78300   78200          1077.7248      296.76515      8532.6893      2983.7576      11516.447      61489.12       87120        
     78400   78300          1079.0826      301.40497      8504.3368      3030.4077      11534.744      61389.996      87120        
     78500   78400          1080.4383      302.21695      8491.0546      3038.5715      11529.626      61346.467      87120        
     78600   78500          1081.7967      297.17321      8506.697       2987.8604      11494.557      61398.578      87120        
     78700   78600          1083.1239      297.80986      8494.6325      2994.2614      11488.894      61351.187      87120        
     78800   78700          1084.4756      298.80949      8517.0088      3004.312       11521.321      61418.245      87120        
     78900   78800          1085.8277      303.2939       8537.0754      3049.3994      11586.475      61486.364      87120        
     79000   78900          1087.1641      304.7491       8529.6793      3064.0304      11593.71       61458.86       87120        
     79100   79000          1088.5158      295.56003      8526.0863      2971.641       11497.727      61436.018      87120        
     79200   79100          1089.8496      298.08008      8487.3759      2996.9783      11484.354      61330.226      87120        
     79300   79200          1091.179       297.23722      8527.7371      2988.504       11516.241      61474.662      87120        
     79400   79300          1092.5388      300.96674      8529.9121      3026.0016      11555.914      61448.605      87120        
     79500   79400          1093.8823      305.67043      8522.9189      3073.2937      11596.213      61473.756      87120        
     79600   79500          1095.2461      302.43395      8551.2621      3040.7533      11592.015      61530.584      87120        
     79700   79600          1096.5996      300.78705      8495.8447      3024.1949      11520.04       61354.801      87120        
     79800   79700          1097.9633      294.50068      8506.3326      2960.9901      11467.323      61357.093      87120        
     79900   79800          1099.3303      298.38362      8506.5404      3000.0302      11506.571      61392.485      87120        
     80000   79900          1100.7008      308.76342      8489.2793      3104.3915      11593.671      61372.646      87120        
     80100   80000          1102.0507      301.22563      8549.8152      3028.6045      11578.42       61588.489      87120        
     80200   80100          1103.3999      301.95358      8500.6178      3035.9235      11536.541      61405.515      87120        
     80300   80200          1104.7503      299.44025      8501.5004      3010.6538      11512.154      61373.576      87120        
     80400   80300          1106.1042      295.46946      8521.4128      2970.7304      11492.143      61450.377      87120        
     80500   80400          1107.4701      301.42981      8492.1541      3030.6574      11522.812      61383.933      87120        
     80600   80500          1108.8642      310.19533      8461.6212      3118.7883      11580.41       61282.477      87120        
     80700   80600          1110.2304      296.26189      8522.9678      2978.6977      11501.665      61422.652      87120        
     80800   80700          1111.5797      295.20442      8485.8537      2968.0656      11453.919      61261.677      87120        
     80900   80800          1112.9311      297.81283      8491.2015      2994.2913      11485.493      61333.808      87120        
     81000   80900          1114.2793      302.85043      8467.7494      3044.9407      11512.69       61266.641      87120        
     81100   81000          1115.6215      299.17472      8499.3039      3007.9841      11507.288      61360.474      87120        
     81200   81100          1116.9515      300.28261      8496.7057      3019.1231      11515.829      61351.102      87120        
     81300   81200          1118.3139      300.85468      8474.4577      3024.8748      11499.333      61301.742      87120        
     81400   81300          1119.6747      295.99844      8445.8275      2976.0489      11421.876      61193.261      87120        
     81500   81400          1121.0328      292.65432      8493.7097      2942.4262      11436.136      61298.593      87120        
     81600   81500          1122.3931      302.74458      8503.7516      3043.8764      11547.628      61364.805      87120        
     81700   81600          1123.7308      303.17195      8502.1406      3048.1733      11550.314      61353.579      87120        
     81800   81700          1125.0863      300.96616      8484.5205      3025.9957      11510.516      61304.279      87120        
     81900   81800          1126.4416      295.93504      8468.3504      2975.4115      11443.762      61233.899      87120        
     82000   81900          1127.8024      296.02093      8435.2204      2976.275       11411.495      61106.659      87120        
     82100   82000          1129.1637      302.06988      8476.5253      3037.0928      11513.618      61249.613      87120        
     82200   82100          1130.5285      305.94709      8480.0062      3076.0753      11556.082      61294.34       87120        
     82300   82200          1131.9133      296.16769      8518.4534      2977.7506      11496.204      61376.561      87120        
     82400   82300          1133.2683      296.71759      8479.5386      2983.2794      11462.818      61274.987      87120        
     82500   82400          1134.6537      299.69607      8497.1684      3013.2259      11510.394      61390.761      87120        
     82600   82500          1136.0337      306.36742      8533.1369      3080.3014      11613.438      61540.552      87120        
     82700   82600          1137.4119      303.58991      8529.9958      3052.3757      11582.372      61547.019      87120        
     82800   82700          1138.7953      298.006        8521.1629      2996.2334      11517.396      61422.554      87120        
     82900   82800          1140.1769      293.80099      8525.4045      2953.9552      11479.36       61414.614      87120        
     83000   82900          1141.5334      301.15716      8485.9812      3027.9161      11513.897      61289.762      87120        
     83100   83000          1142.8775      309.78115      8528.2979      3114.6241      11642.922      61445.172      87120        
     83200   83100          1144.2259      303.5879       8546.9714      3052.3554      11599.327      61516.477      87120        
     83300   83200          1145.5727      301.5729       8502.9703      3032.0961      11535.066      61376.901      87120        
     83400   83300          1146.9417      299.2896       8496.243       3009.1391      11505.382      61318.587      87120        
     83500   83400          1148.2935      298.25626      8502.3514      2998.7497      11501.101      61319.322      87120        
     83600   83500          1149.6512      310.1153       8464.5614      3117.9836      11582.545      61239.095      87120        
     83700   83600          1151.0053      304.42966      8518.0213      3060.8187      11578.84       61476.628      87120        
     83800   83700          1152.3796      297.87174      8472.1932      2994.8836      11467.077      61268.681      87120        
     83900   83800          1153.7328      296.49161      8483.3059      2981.0074      11464.313      61247.052      87120        
     84000   83900          1155.0752      300.48167      8489.4442      3021.1246      11510.569      61280.285      87120        
     84100   84000          1156.4332      302.56311      8498.9401      3042.0519      11540.992      61355.037      87120        
     84200   84100          1157.7747      296.55193      8499.1261      2981.6138      11480.74       61376.02       87120        
     84300   84200          1159.1131      292.50232      8470.8852      2940.8979      11411.783      61211.765      87120        
     84400   84300          1160.451       300.21054      8466.8763      3018.3985      11485.275      61232.908      87120        
     84500   84400          1161.7899      303.39989      8485.8913      3050.4651      11536.356      61358.691      87120        
     84600   84500          1163.1085      303.74968      8458.928       3053.9819      11512.91       61252.038      87120        
     84700   84600          1164.4505      293.21248      8516.4412      2948.0381      11464.479      61401.041      87120        
     84800   84700          1165.7681      304.73229      8456.271       3063.8614      11520.132      61187.516      87120        
     84900   84800          1167.0841      302.54878      8534.9008      3041.9078      11576.809      61514.125      87120        
     85000   84900          1168.4204      305.64176      8498.2916      3073.0055      11571.297      61373.598      87120        
     85100   85000          1169.7294      298.23186      8475.1791      2998.5043      11473.683      61246.108      87120        
     85200   85100          1171.0441      294.54432      8481.5757      2961.4288      11443.005      61278.74       87120        
     85300   85200          1172.3584      300.6007       8499.5876      3022.3213      11521.909      61358.494      87120        
     85400   85300          1173.6988      306.64794      8483.6368      3083.1219      11566.759      61296.909      87120        
     85500   85400          1175.014       301.68361      8495.5685      3033.2092      11528.778      61343.241      87120        
     85600   85500          1176.3608      296.56974      8498.1353      2981.7929      11479.928      61317.501      87120        
     85700   85600          1177.7048      296.53576      8505.3101      2981.4513      11486.761      61319.254      87120        
     85800   85700          1179.0484      300.86754      8565.7964      3025.0042      11590.801      61618.104      87120        
     85900   85800          1180.4138      312.00592      8472.8951      3136.9925      11609.888      61317.749      87120        
     86000   85900          1181.7581      299.27943      8489.6475      3009.0369      11498.684      61358.826      87120        
     86100   86000          1183.091       296.61812      8487.7329      2982.2793      11470.012      61293.133      87120        
     86200   86100          1184.4314      296.90742      8521.6187      2985.188       11506.807      61390.89       87120        
     86300   86200          1185.7955      304.39557      8514.3704      3060.476       11574.846      61377.249      87120        
     86400   86300          1187.1104      302.98354      8471.5396      3046.279       11517.819      61212.109      87120        
     86500   86400          1188.4469      297.59224      8483.9974      2992.0734      11476.071      61280.352      87120        
     86600   86500          1189.7887      300.56083      8470.8908      3021.9204      11492.811      61268.194      87120        
     86700   86600          1191.1268      303.7109       8463.2028      3053.5921      11516.795      61273.722      87120        
     86800   86700          1192.4645      298.03477      8511.5321      2996.5227      11508.055      61440.062      87120        
     86900   86800          1193.7861      296.48356      8484.2194      2980.9265      11465.146      61292.845      87120        
     87000   86900          1195.1283      293.25421      8502.8785      2948.4577      11451.336      61340.473      87120        
     87100   87000          1196.4612      301.50468      8497.2078      3031.4102      11528.618      61325.504      87120        
     87200   87100          1197.7735      307.40254      8474.6105      3090.7088      11565.319      61300.387      87120        
     87300   87200          1199.1085      299.71958      8500.2523      3013.4623      11513.715      61359.325      87120        
     87400   87300          1200.4494      293.83928      8507.1595      2954.3401      11461.5        61407.882      87120        
     87500   87400          1201.7936      291.243        8491.0701      2928.2365      11419.307      61335.118      87120        
     87600   87500          1203.133       300.217        8472.2939      3018.4635      11490.757      61252.81       87120        
     87700   87600          1204.4737      304.04959      8489.847       3056.9973      11546.844      61335.874      87120        
     87800   87700          1205.7912      304.08587      8465.1264      3057.3621      11522.488      61210.49       87120        
     87900   87800          1207.1302      295.85105      8461.6772      2974.5671      11436.244      61157.166      87120        
     88000   87900          1208.4657      294.95339      8470.0852      2965.5417      11435.627      61203.06       87120        
     88100   88000          1209.7956      301.97169      8451.1644      3036.1056      11487.27       61232.671      87120        
     88200   88100          1211.1086      302.68691      8470.9858      3043.2966      11514.282      61298.345      87120        
     88300   88200          1212.4433      300.83773      8490.2344      3024.7044      11514.939      61378.119      87120        
     88400   88300          1213.7772      303.24491      8441.952       3048.9069      11490.859      61166.237      87120        
     88500   88400          1215.1194      294.36601      8479.7033      2959.636       11439.339      61244.662      87120        
     88600   88500          1216.4633      303.10894      8447.046       3047.5399      11494.586      61113.552      87120        
     88700   88600          1217.8051      305.49547      8528.8758      3071.5346      11600.41       61418.915      87120        
     88800   88700          1219.1206      307.73317      8445.5648      3094.033       11539.598      61146.773      87120        
     88900   88800          1220.4602      295.57257      8483.1739      2971.7671      11454.941      61288.631      87120        
     89000   88900          1221.7977      295.78207      8475.3965      2973.8735      11449.27       61278.582      87120        
     89100   89000          1223.1318      304.09496      8443.9803      3057.4536      11501.434      61196.303      87120        
     89200   89100          1224.4696      301.13837      8492.9147      3027.7271      11520.642      61331.441      87120        
     89300   89200          1225.7827      301.1539       8469.3579      3027.8834      11497.241      61202.073      87120        
     89400   89300          1227.1185      297.51911      8456.059       2991.3382      11447.397      61181.721      87120        
     89500   89400          1228.4512      294.82596      8514.2507      2964.2605      11478.511      61374.496      87120        
     89600   89500          1229.765       302.68098      8520.339       3043.237       11563.576      61492.864      87120        
     89700   89600          1231.1048      304.39962      8492.7369      3060.5166      11553.254      61409.589      87120        
     89800   89700          1232.4174      300.90388      8469.3543      3025.3695      11494.724      61298.551      87120        
     89900   89800          1233.7581      296.25497      8487.4085      2978.6281      11466.037      61334.27       87120        
     90000   89900          1235.0957      298.49243      8497.7004      3001.1242      11498.825      61338.217      87120        
     90100   90000          1236.4248      299.28822      8526.3396      3009.1252      11535.465      61408.107      87120        
     90200   90100          1237.7606      303.15993      8522.7281      3048.0525      11570.781      61409.303      87120        
     90300   90200          1239.0755      304.88094      8483.7931      3065.356       11549.149      61286.126      87120        
     90400   90300          1240.4178      292.72802      8504.2397      2943.1672      11447.407      61318.729      87120        
     90500   90400          1241.7561      295.57052      8493.334       2971.7464      11465.08       61328.624      87120        
     90600   90500          1243.0788      300.89188      8501.1446      3025.2488      11526.393      61339.758      87120        
     90700   90600          1244.4248      303.37421      8477.4416      3050.2069      11527.649      61308.291      87120        
     90800   90700          1245.7656      295.12448      8531.5507      2967.2619      11498.813      61483.549      87120        
     90900   90800          1247.0841      303.30283      8476.6518      3049.4892      11526.141      61306.399      87120        
     91000   90900          1248.428       305.20667      8514.7591      3068.631       11583.39       61405.225      87120        
     91100   91000          1249.7901      303.55975      8506.5466      3052.0724      11558.619      61333.725      87120        
     91200   91100          1251.1336      295.77784      8487.8037      2973.8309      11461.635      61325.345      87120        
     91300   91200          1252.4733      299.51239      8463.0261      3011.3791      11474.405      61233.391      87120        
     91400   91300          1253.817       304.84079      8456.5612      3064.9524      11521.514      61242.264      87120        
     91500   91400          1255.1583      299.22657      8485.7328      3008.5054      11494.238      61392.342      87120        
     91600   91500          1256.5061      288.89868      8495.7038      2904.666       11400.37       61335.046      87120        
     91700   91600          1257.8211      297.93803      8471.2003      2995.55        11466.75       61240.735      87120        
     91800   91700          1259.1608      302.9385       8482.5581      3045.8262      11528.384      61234.338      87120        
     91900   91800          1260.5007      300.31104      8501.7662      3019.4089      11521.175      61300.812      87120        
     92000   91900          1261.8441      298.51536      8492.8152      3001.3547      11494.17       61307.552      87120        
     92100   92000          1263.1766      299.35141      8451.6229      3009.7606      11461.384      61172.937      87120        
     92200   92100          1264.515       296.01336      8455.2956      2976.1989      11431.494      61137.009      87120        
     92300   92200          1265.8534      298.9242       8473.1352      3005.4653      11478.6        61210.278      87120        
     92400   92300          1267.19        298.70247      8555.3754      3003.236       11558.611      61527.533      87120        
     92500   92400          1268.5481      307.47786      8489.4059      3091.4661      11580.872      61325.857      87120        
     92600   92500          1269.8864      302.52969      8447.4096      3041.7159      11489.125      61196.92       87120        
     92700   92600          1271.2237      297.63707      8470.646       2992.5242      11463.17       61200.071      87120        
     92800   92700          1272.5606      300.61473      8457.8118      3022.4623      11480.274      61150.251      87120        
     92900   92800          1273.8977      300.87597      8461.7335      3025.0889      11486.822      61217.13       87120        
     93000   92900          1275.2077      294.85025      8472.577       2964.5047      11437.082      61254.606      87120        
     93100   93000          1276.534       290.12927      8488.6836      2917.0387      11405.722      61284.371      87120        
     93200   93100          1277.8679      300.26064      8499.727       3018.9022      11518.629      61383.576      87120        
     93300   93200          1279.1994      299.99915      8533.1121      3016.2731      11549.385      61486.867      87120        
     93400   93300          1280.5321      306.98595      8460.3392      3086.5204      11546.86       61204.366      87120        
     93500   93400          1281.8668      297.901        8467.0196      2995.1778      11462.197      61225.82       87120        
     93600   93500          1283.2104      295.0494       8474.6733      2966.507       11441.18       61233.194      87120        
     93700   93600          1284.5238      295.45975      8526.1596      2970.6327      11496.792      61467.791      87120        
     93800   93700          1285.8572      303.46232      8475.6727      3051.0928      11526.765      61317.879      87120        
     93900   93800          1287.1909      295.0368       8537.5718      2966.3803      11503.952      61485.569      87120        
     94000   93900          1288.5292      302.32385      8478.105       3039.6463      11517.751      61285.629      87120        
     94100   94000          1289.8592      302.74744      8494.0534      3043.9052      11537.959      61351.375      87120        
     94200   94100          1291.199       299.30363      8530.1848      3009.2802      11539.465      61432.581      87120        
     94300   94200          1292.5379      297.05926      8540.4143      2986.7147      11527.129      61524.68       87120        
     94400   94300          1293.8739      299.88842      8501.9639      3015.1598      11517.124      61320.605      87120        
     94500   94400          1295.2124      294.5734       8499.4158      2961.7211      11461.137      61328.521      87120        
     94600   94500          1296.5285      299.1788       8456.673       3008.0252      11464.698      61196.13       87120        
     94700   94600          1297.8644      305.90013      8490.8077      3075.6032      11566.411      61353.54       87120        
     94800   94700          1299.2026      305.42165      8497.0089      3070.7925      11567.801      61360.57       87120        
     94900   94800          1300.5409      298.50876      8516.9763      3001.2883      11518.265      61413.925      87120        
     95000   94900          1301.878       295.74524      8536.8249      2973.5032      11510.328      61491.348      87120        
     95100   95000          1303.2105      296.25128      8534.7636      2978.591       11513.355      61460.866      87120        
     95200   95100          1304.5486      301.5769       8530.8463      3032.1362      11562.983      61457.996      87120        
     95300   95200          1305.9092      309.15916      8552.269       3108.3704      11660.639      61585.223      87120        
     95400   95300          1307.2452      306.20364      8518.8276      3078.6547      11597.482      61464.033      87120        
     95500   95400          1308.5599      302.67849      8492.1001      3043.2119      11535.312      61373.635      87120        
     95600   95500          1309.9038      296.43427      8508.6605      2980.4308      11489.091      61365.521      87120        
     95700   95600          1311.2483      296.35858      8525.1542      2979.6698      11504.824      61464.555      87120        
     95800   95700          1312.5662      303.93663      8533.7613      3055.8617      11589.623      61543.358      87120        
     95900   95800          1313.9304      305.02496      8523.4254      3066.804       11590.229      61488.877      87120        
     96000   95900          1315.25        301.44696      8515.083       3030.8298      11545.913      61438.155      87120        
     96100   96000          1316.5865      299.79805      8516.1994      3014.2512      11530.451      61393.415      87120        
     96200   96100          1317.9272      305.4836       8477.9635      3071.4153      11549.379      61294.342      87120        
     96300   96200          1319.2434      297.64799      8508.8608      2992.634       11501.495      61334.287      87120        
     96400   96300          1320.5825      292.35389      8461.573       2939.4056      11400.979      61194.936      87120        
     96500   96400          1321.8964      296.92136      8461.9937      2985.3282      11447.322      61249.602      87120        
     96600   96500          1323.2408      299.13147      8495.0617      3007.5493      11502.611      61389.809      87120        
     96700   96600          1324.5588      297.90958      8532.7172      2995.2641      11527.981      61515.471      87120        
     96800   96700          1325.895       298.00183      8556.193       2996.1915      11552.385      61573.713      87120        
     96900   96800          1327.2319      303.80727      8531.2869      3054.561       11585.848      61451.437      87120        
     97000   96900          1328.5666      302.28431      8531.1347      3039.2488      11570.384      61435.93       87120        
     97100   97000          1329.8665      300.06297      8480.082       3016.9148      11496.997      61277.448      87120        
     97200   97100          1331.1929      292.93489      8545.0818      2945.2471      11490.329      61480.984      87120        
     97300   97200          1332.5206      306.83178      8470.2844      3084.9703      11555.255      61263.904      87120        
     97400   97300          1333.8518      304.39633      8456.4448      3060.4836      11516.928      61281.858      87120        
     97500   97400          1335.1872      289.4947       8498.803       2910.6585      11409.462      61390.767      87120        
     97600   97500          1336.498       297.84549      8473.5892      2994.6197      11468.209      61320.163      87120        
     97700   97600          1337.8292      300.3098       8507.329       3019.3965      11526.725      61373.859      87120        
     97800   97700          1339.1625      306.0524       8467.7458      3077.1342      11544.88       61171.067      87120        
     97900   97800          1340.4984      296.46282      8479.2933      2980.7179      11460.011      61213.538      87120        
     98000   97900          1341.8323      296.63179      8444.3435      2982.4168      11426.76       61097.251      87120        
     98100   98000          1343.1405      299.36745      8458.5723      3009.9219      11468.494      61201.026      87120        
     98200   98100          1344.4783      298.34727      8508.8971      2999.6647      11508.562      61405.372      87120        
     98300   98200          1345.8155      304.41987      8478.0749      3060.7203      11538.795      61304.32       87120        
     98400   98300          1347.154       299.65653      8441.2808      3012.8283      11454.109      61098.869      87120        
     98500   98400          1348.4684      290.19301      8471.6057      2917.6796      11389.285      61154.426      87120        
     98600   98500          1349.8055      299.36881      8464.9251      3009.9355      11474.861      61138.844      87120        
     98700   98600          1351.1417      300.78045      8484.6282      3024.1285      11508.757      61244.969      87120        
     98800   98700          1352.4787      300.45462      8490.0016      3020.8525      11510.854      61249.075      87120        
     98900   98800          1353.8185      300.16385      8467.7618      3017.929       11485.691      61169.676      87120        
     99000   98900          1355.1585      294.42701      8481.895       2960.2493      11442.144      61240.857      87120        
     99100   99000          1356.4674      296.69281      8510.5854      2983.0303      11493.616      61364.035      87120        
     99200   99100          1357.8102      304.54711      8508.1417      3061.9996      11570.141      61406.814      87120        
     99300   99200          1359.15        303.29692      8472.7612      3049.4298      11522.191      61255.731      87120        
     99400   99300          1360.5316      300.16538      8446.7973      3017.9445      11464.742      61165.941      87120        
     99500   99400          1361.8962      292.83242      8502.6499      2944.2169      11446.867      61299.144      87120        
     99600   99500          1363.2484      300.52589      8478.0705      3021.5692      11499.64       61219.397      87120        
     99700   99600          1364.5982      301.11257      8502.7624      3027.4678      11530.23       61294.525      87120        
     99800   99700          1365.94        301.81533      8470.4417      3034.5335      11504.975      61215.237      87120        
     99900   99800          1367.2828      300.98786      8455.9768      3026.2139      11482.191      61181.068      87120        
    100000   99900          1368.6261      293.91493      8507.6191      2955.1007      11462.72       61407.88       87120        
    100100   100000         1369.9636      301.03661      8476.991       3026.7041      11503.695      61293.963      87120        
Loop time of 1369.96 on 1 procs for 100000 steps with 4369 atoms

Performance: 6.307 ns/day, 3.805 hours/ns, 72.995 timesteps/s, 318.914 katom-step/s
99.9% CPU use with 1 MPI tasks x no OpenMP threads

MPI task timing breakdown:
Section |  min time  |  avg time  |  max time  |%varavg| %total
---------------------------------------------------------------
Pair    | 1153.8     | 1153.8     | 1153.8     |   0.0 | 84.22
Bond    | 19.12      | 19.12      | 19.12      |   0.0 |  1.40
Neigh   | 163.79     | 163.79     | 163.79     |   0.0 | 11.96
Comm    | 6.6132     | 6.6132     | 6.6132     |   0.0 |  0.48
Output  | 0.65716    | 0.65716    | 0.65716    |   0.0 |  0.05
Modify  | 23.43      | 23.43      | 23.43      |   0.0 |  1.71
Other   |            | 2.546      |            |       |  0.19

Nlocal:           4369 ave        4369 max        4369 min
Histogram: 1 0 0 0 0 0 0 0 0 0
Nghost:          11907 ave       11907 max       11907 min
Histogram: 1 0 0 0 0 0 0 0 0 0
Neighs:    1.19013e+06 ave 1.19013e+06 max 1.19013e+06 min
Histogram: 1 0 0 0 0 0 0 0 0 0

Total # of neighbors = 1190127
Ave neighs/atom = 272.40261
Ave special neighs/atom = 6.3401236
Neighbor list builds = 6921
Dangerous builds = 0
unfix                  mynvt


write_data             equilb_200ps.data
System init for write_data ...
Generated 21 of 21 mixed pair_coeff terms from arithmetic mixing rule
WARNING: Dihedrals are defined but no dihedral style is set (../force.cpp:207)
WARNING: Likewise 1-4 special neighbor interactions != 1.0 (../force.cpp:209)
WARNING: Impropers are defined but no improper style is set (../force.cpp:212)
Total wall time: 0:22:52
