LAMMPS (29 Aug 2024)
units                  real
atom_style	       full
bond_style	       harmonic
angle_style	       harmonic
boundary	       p p p

neighbor 2.0 bin
neigh_modify every 1 delay 0 check yes

# ============= read data and parameters files

pair_style            lj/cut 10.0
pair_modify           shift yes mix arithmetic

read_data             equilb_100ps.data
Reading data file ...
  orthogonal box = (-0.1495 -0.193001 -38.75) to (32.8505 32.806999 41.25)
  1 by 2 by 4 MPI processor grid
  reading atoms ...
  4349 atoms
  reading velocities ...
  4349 velocities
  scanning bonds ...
  2 = max bonds/atom
  scanning angles ...
  3 = max angles/atom
  scanning dihedrals ...
  8 = max dihedrals/atom
  scanning impropers ...
  2 = max impropers/atom
  orthogonal box = (-0.1495 -0.193001 -38.75) to (32.8505 32.806999 41.25)
  1 by 2 by 4 MPI processor grid
  reading bonds ...
  3917 bonds
  reading angles ...
  4637 angles
  reading dihedrals ...
  6951 dihedrals
  reading impropers ...
  1152 impropers
Finding 1-2 1-3 1-4 neighbors ...
  special bond factors lj:    0        0        0       
  special bond factors coul:  0        0        0       
     3 = max # of 1-2 neighbors
     6 = max # of 1-3 neighbors
    18 = max # of 1-4 neighbors
    18 = max # of special neighbors
  special bonds CPU = 0.001 seconds
  read_data CPU = 0.081 seconds

pair_coeff  1  1      0.0859  3.3997
pair_coeff  2  2      0.0559  2.757
pair_coeff  3  3      0.0859  3.3997
pair_coeff  4  4      0.0859  3.3997
pair_coeff  5  5      0.0000  1.0000
pair_coeff  6  6      0.1598  3.0330
pair_coeff  7  7      0.1521  3.1507

bond_coeff     1      938.0    1.42
bond_coeff     2      190.96   1.149
bond_coeff     3      938.0    1.42
bond_coeff     4      938.0    1.42
bond_coeff     5      450.0    0.9572

angle_coeff    1      126      120.0
angle_coeff    2      126      120.0
angle_coeff    3      126      120.0
angle_coeff    4      55.0     104.52
angle_coeff    5      295.4    180.0


group  water     type 5  7
2985 atoms in group water
group  memb      type 1
438 atoms in group memb
group  CG1       type 3
448 atoms in group CG1
group  CG2       type 4
448 atoms in group CG2
group  CG3       type 3 4
896 atoms in group CG3

dump dump_1 all custom 500 dump.lammpstrj id type x y z

timestep 1.0
thermo_style custom step time cpu temp pe ke etotal press vol
thermo 100

fix                    myshk1  water shake 1.0e-5 200 0 b 5 a 4
Finding SHAKE clusters ...
       0 = # of size 2 clusters
       0 = # of size 3 clusters
       0 = # of size 4 clusters
     995 = # of frozen angles
  find clusters CPU = 0.000 seconds

fix                    freeze memb setforce 0.0 0.0 0.0

fix                    pistonkeep CG3  setforce  0.0   0.0    NULL
fix                    myforce1   CG1  aveforce  NULL  NULL  -1.439     #P=250 bars
fix                    freeze1    CG2  setforce 0.0 0.0 0.0

fix                    mynvt  all nvt temp 300 300 100.0
run                    500000

CITE-CITE-CITE-CITE-CITE-CITE-CITE-CITE-CITE-CITE-CITE-CITE-CITE

Your simulation uses code contributions which should be cited:

- Type Label Framework: https://doi.org/10.1021/acs.jpcb.3c08419

@Article{Gissinger24,
 author = {Jacob R. Gissinger, Ilia Nikiforov, Yaser Afshar, Brendon Waters, Moon-ki Choi, Daniel S. Karls, Alexander Stukowski, Wonpil Im, Hendrik Heinz, Axel Kohlmeyer, and Ellad B. Tadmor},
 title = {Type Label Framework for Bonded Force Fields in LAMMPS},
 journal = {J. Phys. Chem. B},
 year =    2024,
 volume =  128,
 number =  13,
 pages =   {3282â€“-3297}
}

CITE-CITE-CITE-CITE-CITE-CITE-CITE-CITE-CITE-CITE-CITE-CITE-CITE

Generated 21 of 21 mixed pair_coeff terms from arithmetic mixing rule
WARNING: Dihedrals are defined but no dihedral style is set (../force.cpp:207)
WARNING: Likewise 1-4 special neighbor interactions != 1.0 (../force.cpp:209)
WARNING: Impropers are defined but no improper style is set (../force.cpp:212)
Neighbor list info ...
  update: every = 1 steps, delay = 0 steps, check = yes
  max neighbors/atom: 2000, page size: 100000
  master list distance cutoff = 12
  ghost atom cutoff = 12
  binsize = 6, bins = 6 6 14
  1 neighbor lists, perpetual/occasional/extra = 1 0 0
  (1) pair lj/cut, perpetual
      attributes: half, newton on
      pair build: half/bin/newton
      stencil: half/bin/3d
      bin: standard
Per MPI rank memory allocation (min/avg/max) = 12.34 | 12.94 | 13.87 Mbytes
   Step          Time           CPU            Temp          PotEng         KinEng         TotEng         Press          Volume    
         0   0              0              300.68202      9142.5469      3005.2134      12147.76       56846.938      87120        
       100   100            0.57500979     304.89915      9179.8021      3047.3621      12227.164      57088.379      87120        
       200   200            1.1659861      312.85064      9232.4643      3126.8345      12359.299      57524.727      87120        
       300   300            1.7607638      325.06563      9291.0894      3248.9192      12540.009      57987.494      87120        
       400   400            2.3629511      325.83863      9427.6742      3256.645       12684.319      58666.164      87120        
       500   500            2.9747164      337.1233       9436.6454      3369.4314      12806.077      58960.057      87120        
       600   600            3.6367957      342.63804      9476.6739      3424.5494      12901.223      59356.259      87120        
       700   700            4.3296785      341.3444       9557.1125      3411.6199      12968.732      59948.03       87120        
       800   800            5.084383       342.61572      9584.4474      3424.3262      13008.774      60306.138      87120        
       900   900            5.8852529      335.53984      9677.1637      3353.6053      13030.769      60892.406      87120        
      1000   1000           6.7312805      329.53521      9758.4867      3293.5911      13052.078      61437.985      87120        
      1100   1100           7.6177745      328.35988      9831.2914      3281.8441      13113.135      61995.403      87120        
      1200   1200           8.5482962      318.87912      10012.824      3187.0871      13199.911      62999.911      87120        
      1300   1300           9.5110166      300.67576      10373.961      3005.1508      13379.112      64497.047      87120        
      1400   1400           10.54029       300.61341      10687.922      3004.5277      13692.45       65998.299      87120        
      1500   1500           11.623098      287.64226      11199.297      2874.8854      14074.182      68079.842      87120        
      1600   1600           12.722532      292.06368      11605.79       2919.0761      14524.866      69748.706      87120        
      1700   1700           13.8529        299.34662      11926.847      2991.8666      14918.713      71040.998      87120        
      1800   1800           15.002011      307.52379      12036.958      3073.5946      15110.553      71420.674      87120        
      1900   1900           16.150875      320.76737      11784.831      3205.9595      14990.79       70502.6        87120        
      2000   2000           17.291219      304.18964      11526.624      3040.2708      14566.895      69431.024      87120        
      2100   2100           18.389782      301.41514      11091.896      3012.5406      14104.437      67646.717      87120        
      2200   2200           19.459388      295.6519       10706.042      2954.939       13660.981      66026.773      87120        
      2300   2300           20.51435       290.94311      10393.121      2907.8763      13300.997      64612.719      87120        
      2400   2400           21.568705      298.57249      10102.28       2984.1294      13086.41       63311.452      87120        
      2500   2500           22.572971      296.43297      9949.3114      2962.7456      12912.057      62423.138      87120        
      2600   2600           23.527648      296.82977      9798.1214      2966.7115      12764.833      61643.714      87120        
      2700   2700           24.486751      294.83987      9731.0044      2946.8232      12677.828      61249.845      87120        
      2800   2800           25.406005      296.77768      9658.5068      2966.1908      12624.698      60743.131      87120        
      2900   2900           26.309278      296.84499      9630.9871      2966.8636      12597.851      60544.494      87120        
      3000   3000           27.202308      297.42932      9648.0305      2972.7038      12620.734      60450.282      87120        
      3100   3100           28.071736      305.23771      9587.8463      3050.746       12638.592      60211.054      87120        
      3200   3200           28.942609      304.22683      9586.4678      3040.6425      12627.11       60222.687      87120        
      3300   3300           29.811079      299.93573      9634.7519      2997.7544      12632.506      60288.246      87120        
      3400   3400           30.688984      297.98141      9675.3625      2978.2218      12653.584      60548.441      87120        
      3500   3500           31.564341      304.87024      9653.5235      3047.0733      12700.597      60540.005      87120        
      3600   3600           32.452444      300.49207      9757.2676      3003.3149      12760.583      60973.542      87120        
      3700   3700           33.347598      300.44115      9825.7857      3002.8059      12828.592      61422.335      87120        
      3800   3800           34.264224      305.90089      9893.9079      3057.3742      12951.282      61870.212      87120        
      3900   3900           35.193405      304.96415      10031.209      3048.0118      13079.221      62542.528      87120        
      4000   4000           36.156899      307.26396      10155.191      3070.9977      13226.189      63182.903      87120        
      4100   4100           37.127619      301.88915      10339.868      3017.2783      13357.147      64004.778      87120        
      4200   4200           38.155652      298.23279      10502.841      2980.7341      13483.575      64750.401      87120        
      4300   4300           39.189936      296.44283      10631.458      2962.8441      13594.302      65376.545      87120        
      4400   4400           40.253029      301.20076      10736.668      3010.398       13747.066      65894.013      87120        
      4500   4500           41.326912      297.56429      10883.637      2974.0527      13857.69       66478.014      87120        
      4600   4600           42.402548      294.90108      10983.574      2947.4349      13931.009      66895.221      87120        
      4700   4700           43.460309      308.6476       10933.58       3084.8266      14018.406      66775.264      87120        
      4800   4800           44.540436      302.8975       10882.343      3027.3564      13909.7        66500.127      87120        
      4900   4900           45.617356      300.7352       10763.716      3005.7449      13769.461      66095.303      87120        
      5000   5000           46.699872      298.8201       10639.677      2986.6041      13626.281      65482.671      87120        
      5100   5100           47.758207      304.1911       10470.295      3040.2855      13510.58       64765.687      87120        
      5200   5200           48.802465      304.13097      10386.612      3039.6844      13426.297      64381.546      87120        
      5300   5300           49.837573      305.87705      10264.425      3057.1359      13321.561      63776.139      87120        
      5400   5400           50.855943      295.8374       10175.525      2956.7931      13132.318      63276.19       87120        
      5500   5500           51.838837      295.36309      10057.911      2952.0525      13009.963      62776.762      87120        
      5600   5600           52.822365      291.86447      10013.106      2917.085       12930.191      62513.959      87120        
      5700   5700           53.78332       296.55512      9927.7019      2963.9664      12891.668      62057.506      87120        
      5800   5800           54.738539      297.82099      9894.2909      2976.6184      12870.909      61881.999      87120        
      5900   5900           55.688023      300.93541      9883.253       3007.746       12890.999      61822.156      87120        
      6000   6000           56.629944      293.64452      9952.3715      2934.876       12887.247      61960.405      87120        
      6100   6100           57.545745      304.59374      9872.851       3044.3097      12917.161      61763.92       87120        
      6200   6200           58.453144      303.02744      9906.3837      3028.6551      12935.039      61846.473      87120        
      6300   6300           59.374968      301.60265      9887.8452      3014.4148      12902.26       61835.508      87120        
      6400   6400           60.301762      294.24986      10029.301      2940.9262      12970.228      62473.912      87120        
      6500   6500           61.244407      300.51166      10113.047      3003.5107      13116.557      62752.519      87120        
      6600   6600           62.206373      308.0921       10133.03       3079.2746      13212.304      63001.958      87120        
      6700   6700           63.192042      304.11797      10164.168      3039.5546      13203.723      63213.862      87120        
      6800   6800           64.181334      303.35697      10247.055      3031.9486      13279.004      63481.735      87120        
      6900   6900           65.192917      304.89764      10283.125      3047.347       13330.472      63781.096      87120        
      7000   7000           66.216284      296.27491      10397.589      2961.1658      13358.755      64257.772      87120        
      7100   7100           67.209278      299.86836      10432.127      2997.0812      13429.208      64374.53       87120        
      7200   7200           68.240363      300.02858      10478.917      2998.6825      13477.6        64657.477      87120        
      7300   7300           69.298626      302.86727      10445.756      3027.0542      13472.81       64608.475      87120        
      7400   7400           70.354988      295.97857      10538.022      2958.204       13496.226      64879.078      87120        
      7500   7500           71.397022      300.91761      10514.533      3007.568       13522.101      64900.425      87120        
      7600   7600           72.447867      298.43385      10556.388      2982.7437      13539.131      65005.093      87120        
      7700   7700           73.489756      302.5535       10555.525      3023.9182      13579.443      64966.795      87120        
      7800   7800           74.529858      306.45223      10465.563      3062.8846      13528.447      64636.756      87120        
      7900   7900           75.548788      296.84946      10366.607      2966.9083      13333.515      64198.771      87120        
      8000   8000           76.594003      293.00469      10349.421      2928.4811      13277.902      63949.113      87120        
      8100   8100           77.607866      302.33971      10260.709      3021.7814      13282.491      63730.591      87120        
      8200   8200           78.621981      301.6775       10210.187      3015.1628      13225.35       63430.027      87120        
      8300   8300           79.628628      301.08934      10184.899      3009.2844      13194.183      63325.231      87120        
      8400   8400           80.623323      306.55638      10143.726      3063.9256      13207.651      63156.165      87120        
      8500   8500           81.609674      301.32991      10111.507      3011.6888      13123.196      62916.66       87120        
      8600   8600           82.586952      293.68683      10102.541      2935.2989      13037.84       62869.613      87120        
      8700   8700           83.552686      306.06736      10037.311      3059.038       13096.349      62680.49       87120        
      8800   8800           84.521708      305.62489      10108.697      3054.6157      13163.313      62830.119      87120        
      8900   8900           85.48529       306.02257      10041.674      3058.5904      13100.265      62620.126      87120        
      9000   9000           86.443258      295.15419      10093.763      2949.9646      13043.727      62769.469      87120        
      9100   9100           87.387302      302.2148       10063.171      3020.533       13083.704      62710.92       87120        
      9200   9200           88.355853      298.28817      10131.28       2981.2877      13112.567      62952.982      87120        
      9300   9300           89.341305      298.28346      10163.139      2981.2406      13144.379      63116.499      87120        
      9400   9400           90.323826      298.54088      10148.538      2983.8135      13132.352      63133.232      87120        
      9500   9500           91.31102       295.97805      10232.145      2958.1988      13190.344      63378.123      87120        
      9600   9600           92.316002      309.08055      10229.498      3089.1538      13318.652      63511.637      87120        
      9700   9700           93.325968      304.37439      10275.699      3042.1174      13317.817      63637.073      87120        
      9800   9800           94.320879      299.50699      10336.858      2993.4694      13330.328      63976.196      87120        
      9900   9900           95.346282      302.34321      10365.602      3021.8164      13387.419      64130.524      87120        
     10000   10000          96.38099       300.73473      10386.954      3005.7402      13392.694      64207.186      87120        
     10100   10100          97.410803      297.57056      10392.266      2974.1155      13366.382      64283.44       87120        
     10200   10200          98.42786       296.613        10392.158      2964.5449      13356.703      64290.081      87120        
     10300   10300          99.442997      301.95774      10390.693      3017.9637      13408.657      64204.675      87120        
     10400   10400          100.46716      309.20881      10379.503      3090.4357      13469.939      64263.133      87120        
     10500   10500          101.50264      302.86823      10340.032      3027.0638      13367.096      63987.744      87120        
     10600   10600          102.52643      297.07184      10322.178      2969.1308      13291.309      63946.408      87120        
     10700   10700          103.56578      297.29203      10304.91       2971.3316      13276.242      63871.068      87120        
     10800   10800          104.62129      300.64286      10308.456      3004.822       13313.278      63861.052      87120        
     10900   10900          105.65824      298.42228      10323.375      2982.628       13306.003      63862.433      87120        
     11000   11000          106.68604      307.05133      10205.119      3068.8724      13273.991      63428.786      87120        
     11100   11100          107.69902      291.73429      10200.286      2915.7839      13116.07       63343.963      87120        
     11200   11200          108.67801      297.02493      10158.332      2968.662       13126.994      63195.502      87120        
     11300   11300          109.67145      299.16326      10208.75       2990.0339      13198.784      63363.82       87120        
     11400   11400          110.66892      299.0407       10198.397      2988.8089      13187.206      63314.66       87120        
     11500   11500          111.65171      293.9999       10203.893      2938.4279      13142.321      63269.691      87120        
     11600   11600          112.65041      300.99719      10065.55       3008.3634      13073.914      62845.526      87120        
     11700   11700          113.64272      293.3089       10079.007      2931.5216      13010.528      62855.647      87120        
     11800   11800          114.62889      300.38689      10088.115      3002.2637      13090.379      62879.264      87120        
     11900   11900          115.62311      301.30871      10174.241      3011.4769      13185.718      63198.917      87120        
     12000   12000          116.61141      304.57381      10198.083      3044.1105      13242.194      63382.02       87120        
     12100   12100          117.59969      304.71971      10184.532      3045.5687      13230.1        63292.777      87120        
     12200   12200          118.60085      296.28461      10190.19       2961.2628      13151.453      63336.091      87120        
     12300   12300          119.59003      298.18981      10191.406      2980.3046      13171.711      63356.537      87120        
     12400   12400          120.59942      300.76092      10232.657      3006.002       13238.659      63494.912      87120        
     12500   12500          121.58737      299.87519      10265.698      2997.1494      13262.847      63593.566      87120        
     12600   12600          122.61078      296.44106      10264.116      2962.8264      13226.942      63602.221      87120        
     12700   12700          123.61529      292.3102       10295.036      2921.5399      13216.575      63705.818      87120        
     12800   12800          124.60502      303.17349      10278.035      3030.1147      13308.15       63722.219      87120        
     12900   12900          125.6194       303.99465      10305.219      3038.322       13343.541      63799.318      87120        
     13000   13000          126.62099      301.65886      10278.516      3014.9766      13293.493      63670.75       87120        
     13100   13100          127.62478      296.94371      10258.011      2967.8503      13225.862      63634.708      87120        
     13200   13200          128.63147      299.56455      10232.494      2994.0446      13226.539      63491.163      87120        
     13300   13300          129.61772      307.76961      10225.419      3076.0515      13301.47       63488.547      87120        
     13400   13400          130.61441      304.27844      10221.137      3041.1583      13262.295      63399.477      87120        
     13500   13500          131.60963      298.21206      10172.39       2980.527       13152.917      63201.055      87120        
     13600   13600          132.60706      292.38346      10166.384      2922.2722      13088.656      63240.249      87120        
     13700   13700          133.58703      300.95012      10187.978      3007.8929      13195.871      63270.298      87120        
     13800   13800          134.58412      301.58323      10224.987      3014.2207      13239.207      63437.381      87120        
     13900   13900          135.58407      295.75758      10248.975      2955.9953      13204.97       63454.434      87120        
     14000   14000          136.5728       298.46995      10173.55       2983.1045      13156.655      63237.633      87120        
     14100   14100          137.56777      296.80867      10192.577      2966.5006      13159.078      63335.1        87120        
     14200   14200          138.54782      299.4022       10243.74       2992.4221      13236.162      63488.329      87120        
     14300   14300          139.56707      305.08752      10225.464      3049.2448      13274.708      63489.043      87120        
     14400   14400          140.5703       302.32079      10188.382      3021.5923      13209.974      63308.572      87120        
     14500   14500          141.55516      293.9944       10204.879      2938.3729      13143.252      63349.888      87120        
     14600   14600          142.54145      297.49838      10215.649      2973.394       13189.044      63457.612      87120        
     14700   14700          143.54675      299.35159      10209.364      2991.9162      13201.28       63397.913      87120        
     14800   14800          144.55296      295.33544      10256.732      2951.7762      13208.509      63595.18       87120        
     14900   14900          145.55921      302.39211      10217.304      3022.3051      13239.609      63500.824      87120        
     15000   15000          146.55202      299.99839      10279.63       2998.3807      13278.01       63714.405      87120        
     15100   15100          147.54478      304.38598      10280.696      3042.2332      13322.929      63694.936      87120        
     15200   15200          148.54407      297.38901      10266.229      2972.3009      13238.53       63659.691      87120        
     15300   15300          149.54416      294.56122      10245.757      2944.0381      13189.795      63574.202      87120        
     15400   15400          150.55163      301.5835       10202.114      3014.2234      13216.338      63413.725      87120        
     15500   15500          151.55331      304.8278       10202.014      3046.6491      13248.663      63434.683      87120        
     15600   15600          152.55703      305.10291      10244.967      3049.3987      13294.366      63548.771      87120        
     15700   15700          153.55161      300.98195      10238.268      3008.2111      13246.479      63457.688      87120        
     15800   15800          154.54702      297.94075      10166.284      2977.8154      13144.1        63227.094      87120        
     15900   15900          155.54547      295.06629      10196.661      2949.0861      13145.747      63333.312      87120        
     16000   16000          156.54836      303.06955      10157.13       3029.076       13186.206      63228.391      87120        
     16100   16100          157.53517      307.60768      10197.729      3074.4329      13272.162      63387.439      87120        
     16200   16200          158.53361      309.55798      10202.428      3093.9255      13296.353      63369.215      87120        
     16300   16300          159.54672      298.884        10187.435      2987.2428      13174.677      63285.628      87120        
     16400   16400          160.54678      293.74675      10212.759      2935.8977      13148.657      63417.294      87120        
     16500   16500          161.54384      297.705        10224.179      2975.4591      13199.638      63481.672      87120        
     16600   16600          162.53688      302.40935      10252.895      3022.4774      13275.372      63520.633      87120        
     16700   16700          163.52963      308.24142      10173.261      3080.767       13254.028      63294.586      87120        
     16800   16800          164.5349       301.06859      10208.618      3009.077       13217.695      63409.628      87120        
     16900   16900          165.52523      299.44934      10238.455      2992.8932      13231.348      63501.05       87120        
     17000   17000          166.52854      302.51893      10231.167      3023.5727      13254.74       63468.746      87120        
     17100   17100          167.52623      304.57679      10187.111      3044.1403      13231.251      63364.516      87120        
     17200   17200          168.50605      297.56204      10153.852      2974.0302      13127.882      63209.473      87120        
     17300   17300          169.5071       295.69972      10200.371      2955.417       13155.788      63388.333      87120        
     17400   17400          170.50436      294.4539       10314.591      2942.9655      13257.557      63779.736      87120        
     17500   17500          171.4849       306.18631      10229.949      3060.2269      13290.176      63511.521      87120        
     17600   17600          172.48728      300.63147      10233.416      3004.7082      13238.124      63518.261      87120        
     17700   17700          173.49437      300.00077      10212.994      2998.4046      13211.398      63461.649      87120        
     17800   17800          174.50931      296.26372      10238.914      2961.054       13199.968      63566.467      87120        
     17900   17900          175.50823      298.93252      10260.195      2987.7277      13247.922      63597.172      87120        
     18000   18000          176.52046      306.00999      10286.457      3058.4646      13344.922      63755.921      87120        
     18100   18100          177.51844      301.04742      10323.375      3008.8654      13332.24       63866.843      87120        
     18200   18200          178.49862      299.36385      10276.351      2992.0387      13268.389      63679.642      87120        
     18300   18300          179.49679      296.22825      10266.37       2960.6994      13227.07       63633.722      87120        
     18400   18400          180.50342      300.45721      10227.936      3002.9665      13230.902      63429.492      87120        
     18500   18500          181.49753      303.94237      10197.67       3037.7994      13235.469      63343.022      87120        
     18600   18600          182.5017       297.43523      10182.923      2972.7629      13155.686      63246.546      87120        
     18700   18700          183.50486      293.00764      10189.957      2928.5106      13118.468      63271.978      87120        
     18800   18800          184.49122      301.13413      10158.824      3009.7321      13168.556      63120.13       87120        
     18900   18900          185.49224      302.86341      10210.331      3027.0156      13237.346      63337.279      87120        
     19000   19000          186.50046      303.12933      10233.672      3029.6734      13263.346      63456.47       87120        
     19100   19100          187.47955      298.10525      10185.084      2979.4595      13164.544      63143.674      87120        
     19200   19200          188.48078      297.93647      10133.996      2977.7725      13111.769      63089.707      87120        
     19300   19300          189.47775      293.12191      10233.121      2929.6526      13162.774      63450.809      87120        
     19400   19400          190.47465      303.22598      10245.368      3030.6394      13276.007      63459.525      87120        
     19500   19500          191.47316      301.48591      10281.35       3013.248       13294.598      63690.028      87120        
     19600   19600          192.47633      304.41165      10219.874      3042.4897      13262.364      63459.886      87120        
     19700   19700          193.47669      296.59796      10229.547      2964.3946      13193.942      63478.175      87120        
     19800   19800          194.48157      295.27681      10255.899      2951.1902      13207.09       63589.328      87120        
     19900   19900          195.50566      297.07045      10281.956      2969.1169      13251.073      63679.938      87120        
     20000   20000          196.53352      302.04496      10290.992      3018.8355      13309.827      63697.542      87120        
     20100   20100          197.55007      302.38574      10278.446      3022.2415      13300.688      63702.94       87120        
     20200   20200          198.56006      298.02628      10233.046      2978.6702      13211.716      63489.762      87120        
     20300   20300          199.56575      288.98841      10309.735      2888.3397      13198.075      63730.42       87120        
     20400   20400          200.59863      304.77154      10237.165      3046.0868      13283.251      63472.093      87120        
     20500   20500          201.60967      297.47116      10264.111      2973.122       13237.233      63579.629      87120        
     20600   20600          202.60491      296.71378      10208.35       2965.5522      13173.902      63380.406      87120        
     20700   20700          203.60658      293.45985      10206.194      2933.0303      13139.225      63329.687      87120        
     20800   20800          204.58014      306.58957      10138.763      3064.2573      13203.02       63065.013      87120        
     20900   20900          205.57206      303.10219      10181.152      3029.4022      13210.554      63217.607      87120        
     21000   21000          206.55095      300.97802      10162.324      3008.1718      13170.496      63149.269      87120        
     21100   21100          207.53084      297.55815      10174.951      2973.9914      13148.942      63141.25       87120        
     21200   21200          208.51688      303.06646      10121.352      3029.0451      13150.397      62999.03       87120        
     21300   21300          209.49374      300.08521      10137.699      2999.2485      13136.947      63033.915      87120        
     21400   21400          210.48619      295.18014      10164.428      2950.224       13114.652      63093.048      87120        
     21500   21500          211.46066      299.56945      10130.898      2994.0936      13124.992      63034.364      87120        
     21600   21600          212.44978      299.21811      10187.659      2990.5821      13178.241      63234.577      87120        
     21700   21700          213.43958      301.35714      10191.513      3011.961       13203.474      63248.963      87120        
     21800   21800          214.4286       303.12899      10157.291      3029.67        13186.961      63178.996      87120        
     21900   21900          215.43515      294.6706       10206.099      2945.1313      13151.23       63390.225      87120        
     22000   22000          216.42236      294.98761      10246.345      2948.2997      13194.645      63486.076      87120        
     22100   22100          217.40969      306.22985      10259.132      3060.6621      13319.794      63643.331      87120        
     22200   22200          218.41086      304.64201      10251.787      3044.7921      13296.579      63618.987      87120        
     22300   22300          219.39609      300.61693      10263.589      3004.5629      13268.152      63644.807      87120        
     22400   22400          220.40521      300.50301      10288.443      3003.4242      13291.868      63755.921      87120        
     22500   22500          221.39594      302.24366      10246.97       3020.8215      13267.791      63632.955      87120        
     22600   22600          222.41053      294.96271      10249.697      2948.0508      13197.747      63536.742      87120        
     22700   22700          223.41711      295.77403      10232.412      2956.1597      13188.571      63501.435      87120        
     22800   22800          224.41686      308.75653      10208.343      3085.9153      13294.258      63468.368      87120        
     22900   22900          225.41872      305.8431       10200.541      3056.7966      13257.338      63371.972      87120        
     23000   23000          226.43172      298.93843      10180.59       2987.7868      13168.377      63268.881      87120        
     23100   23100          227.41817      297.17347      10176.187      2970.1466      13146.333      63289.15       87120        
     23200   23200          228.41949      298.47544      10190.97       2983.1594      13174.129      63258.147      87120        
     23300   23300          229.42488      305.86408      10141.975      3057.0063      13198.981      63099.092      87120        
     23400   23400          230.42293      301.56094      10190.289      3013.9979      13204.287      63266.742      87120        
     23500   23500          231.42625      305.0698       10182.363      3049.0678      13231.431      63177.422      87120        
     23600   23600          232.43403      305.84323      10133.18       3056.7979      13189.978      63051.718      87120        
     23700   23700          233.43445      296.7773       10138.177      2966.187       13104.364      63035.567      87120        
     23800   23800          234.42457      300.47042      10090.957      3003.0986      13094.056      62809.274      87120        
     23900   23900          235.42229      296.08896      10154.985      2959.3073      13114.292      63112.909      87120        
     24000   24000          236.41215      304.93593      10139.857      3047.7298      13187.587      63045.573      87120        
     24100   24100          237.40174      304.3014       10171.656      3041.3879      13213.043      63121.928      87120        
     24200   24200          238.36808      297.20695      10156.317      2970.4813      13126.798      63113.213      87120        
     24300   24300          239.35505      292.62514      10198.609      2924.6876      13123.297      63265.341      87120        
     24400   24400          240.34533      297.36842      10215.092      2972.0951      13187.187      63284.557      87120        
     24500   24500          241.34271      304.95921      10167.173      3047.9625      13215.135      63270.554      87120        
     24600   24600          242.33109      297.72656      10228.628      2975.6746      13204.303      63411.278      87120        
     24700   24700          243.33932      294.7835       10230.177      2946.2597      13176.436      63364.664      87120        
     24800   24800          244.33745      286.14365      10215.342      2859.9073      13075.25       63343.111      87120        
     24900   24900          245.3201       297.05118      10150.646      2968.9243      13119.57       63097.372      87120        
     25000   25000          246.31531      300.3824       10225.99       3002.2188      13228.209      63409.048      87120        
     25100   25100          247.29815      305.61929      10198.83       3054.5597      13253.39       63455.223      87120        
     25200   25200          248.28793      302.41293      10190.667      3022.5132      13213.18       63291.104      87120        
     25300   25300          249.26926      293.90312      10208.535      2937.4606      13145.996      63291.548      87120        
     25400   25400          250.25728      292.46868      10152.705      2923.1238      13075.829      63211.409      87120        
     25500   25500          251.22791      292.19626      10211.68       2920.4011      13132.081      63292.623      87120        
     25600   25600          252.21551      306.05249      10167.071      3058.8893      13225.96       63229.684      87120        
     25700   25700          253.20302      301.00388      10162.542      3008.4302      13170.972      63195.125      87120        
     25800   25800          254.19486      293.16449      10187.088      2930.0782      13117.166      63182.363      87120        
     25900   25900          255.17057      297.1629       10178.485      2970.041       13148.526      63269.464      87120        
     26000   26000          256.16061      302.17982      10174.645      3020.1834      13194.828      63235.538      87120        
     26100   26100          257.12624      303.55579      10167.16       3033.9358      13201.096      63057.515      87120        
     26200   26200          258.10986      304.2633       10110.454      3041.0071      13151.461      62953.688      87120        
     26300   26300          259.09589      298.82287      10136.436      2986.6318      13123.068      63053.191      87120        
     26400   26400          260.08275      297.06025      10151.818      2969.015       13120.833      62997.511      87120        
     26500   26500          261.06978      300.75848      10159.531      3005.9776      13165.509      63152.915      87120        
     26600   26600          262.07231      312.06633      10166.268      3118.9956      13285.264      63172.626      87120        
     26700   26700          263.05903      306.7428       10156.808      3065.7888      13222.596      63078.772      87120        
     26800   26800          264.0431       298.86438      10153.945      2987.0467      13140.991      63060.173      87120        
     26900   26900          265.03483      299.31995      10153.557      2991.5999      13145.157      63090.533      87120        
     27000   27000          266.01033      299.05788      10160.712      2988.9806      13149.693      63133.89       87120        
     27100   27100          266.99145      297.9728       10200.447      2978.1356      13178.582      63321.33       87120        
     27200   27200          267.96108      303.52492      10194.463      3033.6272      13228.09       63278.442      87120        
     27300   27300          268.94542      306.52101      10211.448      3063.5721      13275.02       63355.115      87120        
     27400   27400          269.93534      298.12165      10200.554      2979.6234      13180.177      63327.093      87120        
     27500   27500          270.93053      295.85646      10177.952      2956.9836      13134.936      63174.333      87120        
     27600   27600          271.90952      297.58108      10196.723      2974.2205      13170.944      63309.635      87120        
     27700   27700          272.92402      305.12938      10202.883      3049.6632      13252.546      63362.142      87120        
     27800   27800          273.93139      307.83786      10197.991      3076.7335      13274.724      63303.035      87120        
     27900   27900          274.92162      293.46757      10219.799      2933.1074      13152.907      63410.116      87120        
     28000   28000          275.91339      298.52917      10151.59       2983.6964      13135.286      63151.529      87120        
     28100   28100          276.89714      300.19225      10195.521      3000.3183      13195.84       63286.082      87120        
     28200   28200          277.87434      305.12008      10182.853      3049.5703      13232.423      63270.114      87120        
     28300   28300          278.85551      300.8285       10157.253      3006.6774      13163.93       63125.164      87120        
     28400   28400          279.8374       298.3513       10132.014      2981.9187      13113.933      62994.528      87120        
     28500   28500          280.8092       295.55549      10175.278      2953.9755      13129.254      63166.042      87120        
     28600   28600          281.79677      299.70908      10176.883      2995.4892      13172.372      63183.909      87120        
     28700   28700          282.78356      301.28107      10137.723      3011.2007      13148.924      63035.49       87120        
     28800   28800          283.77331      296.22389      10155.328      2960.6559      13115.984      63090.552      87120        
     28900   28900          284.77101      302.92507      10080.964      3027.6318      13108.596      62802.118      87120        
     29000   29000          285.76787      305.36417      10117.571      3052.0099      13169.581      62943.268      87120        
     29100   29100          286.75068      305.37897      10150.254      3052.1578      13202.412      63102.604      87120        
     29200   29200          287.733        300.59702      10114.226      3004.3638      13118.59       62937.572      87120        
     29300   29300          288.7159       294.98328      10161.379      2948.2564      13109.636      63123.436      87120        
     29400   29400          289.69733      300.48363      10179.101      3003.2305      13182.332      63223.706      87120        
     29500   29500          290.68724      303.64508      10182.736      3034.8282      13217.564      63240.647      87120        
     29600   29600          291.68475      299.38247      10214.141      2992.2248      13206.366      63346.092      87120        
     29700   29700          292.66994      304.20315      10161.321      3040.4058      13201.727      63256.65       87120        
     29800   29800          293.67086      296.03416      10185.741      2958.7596      13144.5        63222.207      87120        
     29900   29900          294.64955      293.58791      10171.72       2934.3102      13106.03       63234.567      87120        
     30000   30000          295.64398      301.84998      10189.794      3016.8868      13206.681      63376.594      87120        
     30100   30100          296.61559      306.5545       10204.287      3063.9068      13268.194      63366.168      87120        
     30200   30200          297.5995       296.065        10273.085      2959.0679      13232.153      63599.612      87120        
     30300   30300          298.57074      296.554        10262.576      2963.9553      13226.531      63566.557      87120        
     30400   30400          299.55982      307.81167      10245.699      3076.4718      13322.171      63520.202      87120        
     30500   30500          300.54647      313.48761      10217.602      3133.2008      13350.803      63498.911      87120        
     30600   30600          301.53675      300.88742      10227.093      3007.2663      13234.36       63388.817      87120        
     30700   30700          302.51485      300.50207      10175.219      3003.4149      13178.634      63212.137      87120        
     30800   30800          303.5048       298.07393      10148.454      2979.1464      13127.601      63079.703      87120        
     30900   30900          304.4988       295.07821      10178.501      2949.2052      13127.706      63178.514      87120        
     31000   31000          305.47727      302.80714      10154.773      3026.4532      13181.226      63118.833      87120        
     31100   31100          306.45166      307.40905      10166.041      3072.4478      13238.489      63158.685      87120        
     31200   31200          307.43448      297.08152      10200.108      2969.2276      13169.336      63211.598      87120        
     31300   31300          308.4353       294.59344      10121.315      2944.3601      13065.675      62919.466      87120        
     31400   31400          309.4375       294.16996      10153.27       2940.1276      13093.398      63051.656      87120        
     31500   31500          310.44391      302.75726      10179.718      3025.9547      13205.673      63197.9        87120        
     31600   31600          311.43141      303.7733       10158.604      3036.1097      13194.714      63164.232      87120        
     31700   31700          312.43297      300.86017      10147.672      3006.9939      13154.666      63144.659      87120        
     31800   31800          313.42152      298.39853      10156.709      2982.3907      13139.1        63091.269      87120        
     31900   31900          314.41396      299.10425      10163.552      2989.4441      13152.996      63142.207      87120        
     32000   32000          315.41235      306.09842      10147.048      3059.3484      13206.396      63127.96       87120        
     32100   32100          316.38997      305.42607      10165.408      3052.6285      13218.036      63118.886      87120        
     32200   32200          317.36179      299.42353      10117.494      2992.6352      13110.129      63017.807      87120        
     32300   32300          318.34729      297.72456      10127.621      2975.6546      13103.275      63040.89       87120        
     32400   32400          319.32746      304.13919      10120.36       3039.7666      13160.126      63052.439      87120        
     32500   32500          320.31347      300.70027      10197.753      3005.3957      13203.148      63304.044      87120        
     32600   32600          321.30321      304.04398      10218.703      3038.815       13257.518      63360.734      87120        
     32700   32700          322.27056      308.10351      10170.381      3079.3886      13249.77       63287.5        87120        
     32800   32800          323.2563       297.38334      10177.971      2972.2442      13150.215      63292.77       87120        
     32900   32900          324.23326      300.70972      10153.288      3005.4903      13158.779      63166.37       87120        
     33000   33000          325.22606      300.81717      10184.933      3006.5642      13191.498      63240.185      87120        
     33100   33100          326.21023      304.8634       10207.08       3047.0049      13254.085      63409.292      87120        
     33200   33200          327.1788       303.18937      10232.446      3030.2735      13262.719      63418.523      87120        
     33300   33300          328.15928      293.46229      10251.599      2933.0547      13184.654      63543.568      87120        
     33400   33400          329.12632      297.72222      10209.11       2975.6312      13184.742      63470.834      87120        
     33500   33500          330.11216      306.47566      10220.93       3063.1189      13284.049      63486.634      87120        
     33600   33600          331.08248      305.05708      10241.319      3048.9406      13290.259      63523.238      87120        
     33700   33700          332.06784      305.57832      10216.933      3054.1502      13271.083      63501.44       87120        
     33800   33800          333.07714      298.64106      10220.449      2984.8147      13205.263      63399.262      87120        
     33900   33900          334.07546      299.29829      10175.848      2991.3835      13167.232      63252.96       87120        
     34000   34000          335.06657      294.54007      10246.315      2943.8267      13190.142      63491.782      87120        
     34100   34100          336.04253      306.90161      10191.141      3067.376       13258.517      63217.793      87120        
     34200   34200          337.0347       301.45749      10174.876      3012.964       13187.84       63228.563      87120        
     34300   34300          338.01717      298.10256      10156.088      2979.4325      13135.521      63162.745      87120        
     34400   34400          339.00104      298.61586      10134.837      2984.5628      13119.4        62993.359      87120        
     34500   34500          339.98884      304.93487      10150.183      3047.7192      13197.902      63079.243      87120        
     34600   34600          340.99728      308.28932      10151.269      3081.2457      13232.514      63142.714      87120        
     34700   34700          341.99055      300.42887      10160.321      3002.6832      13163.004      63025.934      87120        
     34800   34800          342.97751      297.04038      10150.013      2968.8165      13118.83       63084.615      87120        
     34900   34900          343.96313      300.45447      10146.505      3002.9391      13149.444      63111.97       87120        
     35000   35000          344.95434      302.94336      10155.771      3027.8147      13183.585      63044.864      87120        
     35100   35100          345.91824      297.76857      10195.106      2976.0945      13171.2        63270.185      87120        
     35200   35200          346.91058      293.08727      10171.16       2929.3064      13100.466      63137.19       87120        
     35300   35300          347.89086      292.88077      10239.655      2927.2426      13166.898      63423.839      87120        
     35400   35400          348.859        299.45776      10265.449      2992.9773      13258.426      63527.888      87120        
     35500   35500          349.8447       306.70078      10188.765      3065.3688      13254.134      63263.909      87120        
     35600   35600          350.82984      296.39895      10212.091      2962.4055      13174.497      63377.667      87120        
     35700   35700          351.81364      299.58047      10205.556      2994.2038      13199.76       63367.804      87120        
     35800   35800          352.80573      304.00041      10186.596      3038.3795      13224.975      63246.509      87120        
     35900   35900          353.79825      300.97332      10219.056      3008.1248      13227.181      63350.224      87120        
     36000   36000          354.78982      295.33236      10144.414      2951.7454      13096.159      63086.582      87120        
     36100   36100          355.74646      290.00044      10195.754      2898.4547      13094.209      63215.062      87120        
     36200   36200          356.72253      303.05021      10134.479      3028.8826      13163.361      63050.08       87120        
     36300   36300          357.70126      301.55272      10175.648      3013.9158      13189.564      63221.978      87120        
     36400   36400          358.68111      297.37205      10176.173      2972.1314      13148.304      63247.377      87120        
     36500   36500          359.66428      292.22786      10167.588      2920.717       13088.305      63149.722      87120        
     36600   36600          360.65342      297.67258      10111.878      2975.1351      13087.014      63037.305      87120        
     36700   36700          361.65888      302.38706      10113.547      3022.2546      13135.801      62956.986      87120        
     36800   36800          362.65535      307.08542      10135.271      3069.2132      13204.485      63116.654      87120        
     36900   36900          363.64073      302.95534      10180.028      3027.9344      13207.963      63285.472      87120        
     37000   37000          364.62556      298.78805      10140.886      2986.2838      13127.17       63102.089      87120        
     37100   37100          365.5848       292.76926      10163.899      2926.128       13090.027      63157.554      87120        
     37200   37200          366.55905      302.0511       10174.051      3018.8969      13192.947      63236.714      87120        
     37300   37300          367.56128      309.87781      10109.647      3097.1221      13206.769      63016.142      87120        
     37400   37400          368.54934      297.60275      10167.263      2974.4371      13141.7        63196.456      87120        
     37500   37500          369.53646      296.89146      10146.186      2967.328       13113.514      63092.695      87120        
     37600   37600          370.53284      300.56676      10175.018      3004.0614      13179.08       63216.873      87120        
     37700   37700          371.5172       304.42875      10231.7        3042.6606      13274.361      63462.006      87120        
     37800   37800          372.50545      308.58887      10186.65       3084.2397      13270.89       63298.613      87120        
     37900   37900          373.50274      297.508        10164.447      2973.4902      13137.937      63227.399      87120        
     38000   38000          374.48649      295.36039      10185.398      2952.0255      13137.424      63282.2        87120        
     38100   38100          375.46459      300.9752       10190.425      3008.1436      13198.569      63271.5        87120        
     38200   38200          376.4448       303.48362      10209.639      3033.2144      13242.854      63343.941      87120        
     38300   38300          377.44386      301.95009      10191.918      3017.8873      13209.805      63322.698      87120        
     38400   38400          378.42722      299.09874      10118.346      2989.389       13107.735      63004.471      87120        
     38500   38500          379.40469      292.68776      10166.065      2925.3135      13091.379      63130.095      87120        
     38600   38600          380.3964       300.99279      10136.254      3008.3194      13144.574      63065.439      87120        
     38700   38700          381.35758      301.64171      10146.831      3014.8052      13161.636      63053.926      87120        
     38800   38800          382.33413      301.48808      10131.466      3013.2697      13144.735      62968.329      87120        
     38900   38900          383.30684      293.86195      10131.85       2937.0491      13068.9        62967.514      87120        
     39000   39000          384.28899      288.63329      10075.214      2884.7905      12960.005      62701.859      87120        
     39100   39100          385.26242      291.84361      10153.817      2916.8765      13070.694      63029.947      87120        
     39200   39200          386.22184      300.77027      10166.237      3006.0954      13172.333      63143.205      87120        
     39300   39300          387.20178      304.16872      10138.78       3040.0618      13178.841      63073.591      87120        
     39400   39400          388.18128      301.85036      10086.992      3016.8905      13103.882      62874.417      87120        
     39500   39500          389.15377      295.0909       10114.757      2949.3321      13064.089      62971.593      87120        
     39600   39600          390.1392       299.2877       10132.568      2991.2776      13123.846      63051.873      87120        
     39700   39700          391.1252       303.32831      10211.784      3031.6622      13243.446      63330.6        87120        
     39800   39800          392.09712      306.02596      10193.82       3058.6242      13252.444      63347.979      87120        
     39900   39900          393.08712      304.36179      10155.588      3041.9914      13197.579      63205.269      87120        
     40000   40000          394.06507      294.76925      10222.247      2946.1173      13168.364      63414.757      87120        
     40100   40100          395.03259      302.88473      10192.396      3027.2287      13219.625      63390.24       87120        
     40200   40200          396.00523      305.94061      10181.312      3057.7712      13239.083      63321.891      87120        
     40300   40300          396.96171      301.56131      10184.252      3014.0016      13198.254      63295.429      87120        
     40400   40400          397.93803      293.79386      10192.388      2936.3686      13128.757      63275.057      87120        
     40500   40500          398.92212      297.11188      10114.441      2969.531       13083.972      63002.016      87120        
     40600   40600          399.90926      298.73471      10147.975      2985.7507      13133.725      63083.812      87120        
     40700   40700          400.8936       301.51446      10183.676      3013.5334      13197.21       63199.926      87120        
     40800   40800          401.88819      305.02839      10131.324      3048.6538      13179.978      63018.115      87120        
     40900   40900          402.86838      294.37288      10145.044      2942.1557      13087.199      62965.349      87120        
     41000   41000          403.83819      295.45395      10112.809      2952.9606      13065.77       62888.062      87120        
     41100   41100          404.80215      296.85648      10129.529      2966.9784      13096.507      62916.928      87120        
     41200   41200          405.77381      303.99787      10080.277      3038.3541      13118.631      62773.064      87120        
     41300   41300          406.74618      296.49533      10126.09       2963.3689      13089.458      62990.109      87120        
     41400   41400          407.73605      301.05292      10078.171      3008.9204      13087.091      62746.467      87120        
     41500   41500          408.72046      299.51205      10149.46       2993.52        13142.98       62996.162      87120        
     41600   41600          409.72427      309.7308       10091.893      3095.6528      13187.546      62903.93       87120        
     41700   41700          410.70815      298.34229      10110.733      2981.8286      13092.561      62881.065      87120        
     41800   41800          411.68699      298.89188      10044.652      2987.3216      13031.974      62693.728      87120        
     41900   41900          412.66174      294.9747       10095.084      2948.1707      13043.255      62858.963      87120        
     42000   42000          413.63875      302.50751      10090.037      3023.4586      13113.496      62750.819      87120        
     42100   42100          414.60608      301.48451      10133.148      3013.234       13146.382      63028.211      87120        
     42200   42200          415.5944       297.61834      10168.249      2974.5929      13142.842      63151.725      87120        
     42300   42300          416.56333      302.68611      10150.105      3025.2435      13175.348      63073.221      87120        
     42400   42400          417.54298      305.24069      10176.049      3050.7758      13226.824      63215.66       87120        
     42500   42500          418.518        308.14612      10145.806      3079.8145      13225.62       63093.473      87120        
     42600   42600          419.47612      297.08541      10158.464      2969.2665      13127.73       63131.658      87120        
     42700   42700          420.44688      295.50123      10165.134      2953.4332      13118.567      63140.063      87120        
     42800   42800          421.41767      303.15153      10170.145      3029.8953      13200.04       63289.123      87120        
     42900   42900          422.37384      304.27221      10175.523      3041.0961      13216.619      63214.515      87120        
     43000   43000          423.34533      297.29094      10193.864      2971.3207      13165.184      63241.901      87120        
     43100   43100          424.30034      291.01122      10204.96       2908.5571      13113.518      63286.744      87120        
     43200   43200          425.26577      294.41709      10206.542      2942.5976      13149.14       63251.76       87120        
     43300   43300          426.21724      305.71661      10163.513      3055.5324      13219.045      63142.9        87120        
     43400   43400          427.17919      301.91582      10165.74       3017.5448      13183.285      63232.788      87120        
     43500   43500          428.15142      294.94975      10138.527      2947.9213      13086.449      62955.887      87120        
     43600   43600          429.12714      298.6681       10088.868      2985.085       13073.953      62914.01       87120        
     43700   43700          430.10288      295.79479      10125.374      2956.3672      13081.741      62951.469      87120        
     43800   43800          431.06193      304.28258      10037.336      3041.1998      13078.536      62558.994      87120        
     43900   43900          432.03187      301.73364      10052.053      3015.724       13067.777      62679.225      87120        
     44000   44000          433.0022       302.22486      10097.676      3020.6335      13118.309      62820.695      87120        
     44100   44100          433.95983      299.1571       10110.387      2989.9724      13100.359      62861.292      87120        
     44200   44200          434.91159      299.36212      10038.342      2992.0214      13030.364      62671.748      87120        
     44300   44300          435.87846      295.73544      10087.666      2955.774       13043.44       62824.869      87120        
     44400   44400          436.8277       303.01637      10126.179      3028.5444      13154.723      62942.073      87120        
     44500   44500          437.79244      302.19652      10134.089      3020.3503      13154.439      62981.364      87120        
     44600   44600          438.75574      303.67712      10108.387      3035.1484      13143.536      62922.403      87120        
     44700   44700          439.72469      295.98927      10143.437      2958.3109      13101.748      62969.686      87120        
     44800   44800          440.70245      300.47157      10093.141      3003.11        13096.251      62882.147      87120        
     44900   44900          441.67008      298.80718      10157.024      2986.475       13143.499      63090.368      87120        
     45000   45000          442.65329      309.71905      10189.165      3095.5354      13284.7        63210.73       87120        
     45100   45100          443.62526      304.90105      10198.638      3047.3811      13246.019      63229.458      87120        
     45200   45200          444.60978      299.79154      10194.216      2996.3133      13190.53       63182.048      87120        
     45300   45300          445.55624      301.17161      10143.387      3010.1067      13153.494      63026.799      87120        
     45400   45400          446.5206       295.26236      10151.773      2951.0457      13102.818      63095.768      87120        
     45500   45500          447.47277      301.46537      10095.553      3013.0427      13108.596      62868.191      87120        
     45600   45600          448.45106      307.06512      10148.905      3069.0103      13217.915      63054.196      87120        
     45700   45700          449.41284      306.86472      10158.506      3067.0073      13225.514      63116.462      87120        
     45800   45800          450.38518      303.26998      10133.743      3031.0791      13164.822      63099.74       87120        
     45900   45900          451.35965      299.12808      10112.489      2989.6822      13102.171      62871.33       87120        
     46000   46000          452.339        301.46638      10078.984      3013.0528      13092.037      62770.842      87120        
     46100   46100          453.3015       306.12452      10047.569      3059.6093      13107.179      62648.819      87120        
     46200   46200          454.25202      298.56551      10071.222      2984.0595      13055.282      62742.473      87120        
     46300   46300          455.22466      291.97526      10041.039      2918.1923      12959.232      62692.003      87120        
     46400   46400          456.18873      294.85341      10081.391      2946.9584      13028.349      62802.858      87120        
     46500   46500          457.14527      299.28452      10106.068      2991.2458      13097.314      62837.216      87120        
     46600   46600          458.10455      302.99915      10090.605      3028.3723      13118.977      62899.361      87120        
     46700   46700          459.06835      302.73903      10063.546      3025.7725      13089.319      62734.595      87120        
     46800   46800          460.02715      292.68447      10144.286      2925.2806      13069.567      62990.76       87120        
     46900   46900          460.99602      299.44191      10106.075      2992.819       13098.894      62873.551      87120        
     47000   47000          461.97004      303.94975      10147.537      3037.8732      13185.41       63085.558      87120        
     47100   47100          462.91951      302.79841      10153.073      3026.3659      13179.439      63074.531      87120        
     47200   47200          463.88115      295.50473      10146.921      2953.4681      13100.389      63087.426      87120        
     47300   47300          464.83726      296.65937      10131.997      2965.0083      13097.005      63059.21       87120        
     47400   47400          465.77589      294.59045      10179.248      2944.3302      13123.578      63186.415      87120        
     47500   47500          466.73024      301.5345       10153.34       3013.7336      13167.073      63106.841      87120        
     47600   47600          467.67385      302.1801       10164.439      3020.1862      13184.625      63189.3        87120        
     47700   47700          468.63329      295.45226      10118.297      2952.9437      13071.24       63007.423      87120        
     47800   47800          469.58186      293.81939      10132.342      2936.6237      13068.966      63012.12       87120        
     47900   47900          470.54111      297.06104      10179.857      2969.0229      13148.88       63203.989      87120        
     48000   48000          471.4974       304.34035      10145.447      3041.7771      13187.224      63107.835      87120        
     48100   48100          472.43048      302.57836      10154.572      3024.1666      13178.739      63138.405      87120        
     48200   48200          473.39203      300.13975      10110.319      2999.7936      13110.113      62935.227      87120        
     48300   48300          474.35847      289.20876      10120.744      2890.5421      13011.286      62872.952      87120        
     48400   48400          475.33195      297.11979      10107.555      2969.6101      13077.165      62924.255      87120        
     48500   48500          476.29841      299.4743       10153.395      2993.1427      13146.538      63083.233      87120        
     48600   48600          477.26413      301.19363      10159.495      3010.3267      13169.822      63095.98       87120        
     48700   48700          478.2135       298.71385      10192.732      2985.5423      13178.274      63240.393      87120        
     48800   48800          479.18222      303.13378      10196.447      3029.7179      13226.165      63158.696      87120        
     48900   48900          480.15049      311.756        10169.787      3115.894       13285.681      63139.735      87120        
     49000   49000          481.10936      301.89399      10178.614      3017.3266      13195.941      63163.171      87120        
     49100   49100          482.04891      298.7446       10169.621      2985.8496      13155.47       63108.617      87120        
     49200   49200          482.98108      298.45214      10185.391      2982.9265      13168.318      63231.571      87120        
     49300   49300          483.93192      296.47532      10224.228      2963.1688      13187.397      63245.308      87120        
     49400   49400          484.89651      304.0467       10178.434      3038.8422      13217.276      63148.435      87120        
     49500   49500          485.83265      308.84337      10171.702      3086.7833      13258.485      63058.9        87120        
     49600   49600          486.79819      300.50523      10170.38       3003.4464      13173.826      63063.471      87120        
     49700   49700          487.75307      294.11796      10156.45       2939.6078      13096.057      62963.055      87120        
     49800   49800          488.70842      299.90642      10117.767      2997.4616      13115.229      62870.085      87120        
     49900   49900          489.6626       304.58866      10120.834      3044.2589      13165.093      62948.647      87120        
     50000   50000          490.62437      308.60157      10089.971      3084.3665      13174.338      62708.057      87120        
     50100   50100          491.57421      302.43456      10010.769      3022.7295      13033.498      62515.739      87120        
     50200   50200          492.52279      292.47769      10098.321      2923.2139      13021.535      62777.154      87120        
     50300   50300          493.47305      300.63313      10074.646      3004.7247      13079.371      62655.287      87120        
     50400   50400          494.43007      305.77983      10060.206      3056.1643      13116.371      62695.978      87120        
     50500   50500          495.39889      299.60926      10084.358      2994.4915      13078.85       62711.826      87120        
     50600   50600          496.35953      293.57793      10137.776      2934.2105      13071.986      62961.479      87120        
     50700   50700          497.31775      306.44934      10099.125      3062.8558      13161.981      62928.566      87120        
     50800   50800          498.2715       310.59322      10134.061      3104.2724      13238.333      62961.722      87120        
     50900   50900          499.22477      301.3198       10176.054      3011.5878      13187.642      63046.712      87120        
     51000   51000          500.18223      303.59837      10109.384      3034.3613      13143.745      62865.686      87120        
     51100   51100          501.12871      292.01683      10202.919      2918.6078      13121.527      63207.072      87120        
     51200   51200          502.08613      298.04236      10196.952      2978.8309      13175.783      63176.54       87120        
     51300   51300          503.04478      303.21233      10198.579      3030.503       13229.082      63216.608      87120        
     51400   51400          503.97894      301.59498      10201.277      3014.3381      13215.616      63219.32       87120        
     51500   51500          504.92446      300.80259      10164.636      3006.4184      13171.055      63061.262      87120        
     51600   51600          505.87591      295.78416      10180.73       2956.261       13136.991      63134.171      87120        
     51700   51700          506.82387      304.12653      10135.36       3039.6401      13175          62947.941      87120        
     51800   51800          507.75958      300.07766      10169.054      2999.173       13168.227      63036.644      87120        
     51900   51900          508.70698      291.4196       10173.659      2912.6387      13086.298      63085.281      87120        
     52000   52000          509.64118      297.52464      10116.982      2973.6565      13090.639      62855.649      87120        
     52100   52100          510.5831       301.63316      10151.538      3014.7197      13166.258      63044.936      87120        
     52200   52200          511.52736      299.36597      10164.636      2992.0599      13156.696      63062.14       87120        
     52300   52300          512.47233      303.68908      10086.295      3035.2679      13121.563      62822.188      87120        
     52400   52400          513.41688      292.06317      10128.278      2919.0709      13047.348      62912.788      87120        
     52500   52500          514.34591      286.05827      10102.183      2859.054       12961.237      62788.727      87120        
     52600   52600          515.29003      297.02408      10077.703      2968.6536      13046.357      62695.985      87120        
     52700   52700          516.24057      300.33574      10105.54       3001.7525      13107.292      62791.27       87120        
     52800   52800          517.20175      299.38583      10124.548      2992.2584      13116.807      62878.536      87120        
     52900   52900          518.1491       299.49987      10128.05       2993.3982      13121.449      62879.554      87120        
     53000   53000          519.11599      296.27505      10134.823      2961.1673      13095.99       62845.367      87120        
     53100   53100          520.0406       295.50348      10090.634      2953.4557      13044.09       62763.778      87120        
     53200   53200          520.9793       298.43147      10108.946      2982.7199      13091.666      62833.637      87120        
     53300   53300          521.92308      305.99751      10131.54       3058.3399      13189.88       62946.2        87120        
     53400   53400          522.864        302.93107      10135.382      3027.6918      13163.074      62916.559      87120        
     53500   53500          523.81664      297.71569      10128.846      2975.566       13104.412      62899.06       87120        
     53600   53600          524.76408      295.30788      10150.185      2951.5007      13101.686      62960.074      87120        
     53700   53700          525.72922      304.2303       10094.494      3040.6773      13135.171      62797.877      87120        
     53800   53800          526.69096      294.8552       10162.281      2946.9763      13109.258      63018.095      87120        
     53900   53900          527.65455      288.05425      10181.856      2879.0032      13060.859      63017.609      87120        
     54000   54000          528.62194      299.34305      10178.664      2991.8309      13170.495      63023.337      87120        
     54100   54100          529.57766      303.5637       10162.961      3034.0148      13196.976      63067.337      87120        
     54200   54200          530.53056      301.03626      10150.072      3008.7539      13158.826      62971.246      87120        
     54300   54300          531.49097      299.71468      10117.352      2995.5451      13112.897      62808.518      87120        
     54400   54400          532.46369      293.33212      10106.818      2931.7537      13038.572      62829.896      87120        
     54500   54500          533.40557      294.47451      10116.206      2943.1715      13059.377      62774.828      87120        
     54600   54600          534.37124      307.24503      10102.941      3070.8084      13173.75       62815.914      87120        
     54700   54700          535.33031      299.37809      10130.231      2992.181       13122.412      62898.347      87120        
     54800   54800          536.28678      299.92157      10064.62       2997.613       13062.233      62648.608      87120        
     54900   54900          537.2404       295.58265      10116.337      2954.247       13070.584      62789.721      87120        
     55000   55000          538.19797      303.79791      10155.926      3036.3557      13192.282      62959.06       87120        
     55100   55100          539.14573      303.48272      10184.45       3033.2054      13217.656      63098.834      87120        
     55200   55200          540.1046       306.46413      10136.482      3063.0036      13199.485      62930.838      87120        
     55300   55300          541.06199      300.24686      10183.484      3000.8641      13184.348      63125.916      87120        
     55400   55400          542.01728      301.70105      10122.23       3015.3983      13137.629      62937.202      87120        
     55500   55500          542.9682       294.67604      10141.801      2945.1857      13086.986      62917.372      87120        
     55600   55600          543.91576      296.51242      10135.338      2963.5397      13098.877      63028.674      87120        
     55700   55700          544.85928      306.87351      10145.626      3067.0952      13212.721      63033.794      87120        
     55800   55800          545.81154      303.70466      10177.821      3035.4236      13213.244      63126.447      87120        
     55900   55900          546.76215      295.17187      10190.275      2950.1413      13140.416      63216.437      87120        
     56000   56000          547.71431      298.7941       10146.294      2986.3443      13132.638      62978.906      87120        
     56100   56100          548.65546      303.34259      10113.053      3031.8049      13144.858      62921.71       87120        
     56200   56200          549.60687      300.55368      10122.15       3003.9307      13126.081      62974.68       87120        
     56300   56300          550.53821      290.873        10136.291      2907.1756      13043.467      62952.444      87120        
     56400   56400          551.49823      296.26903      10153.962      2961.107       13115.069      63098.76       87120        
     56500   56500          552.44652      305.45481      10133.069      3052.9158      13185.985      63015.377      87120        
     56600   56600          553.38146      298.78663      10185.203      2986.2697      13171.473      63197.331      87120        
     56700   56700          554.34806      297.16619      10150.839      2970.0739      13120.913      63040.199      87120        
     56800   56800          555.29865      293.47778      10175.735      2933.2095      13108.944      63164.231      87120        
     56900   56900          556.24609      304.8677       10136.439      3047.0479      13183.487      63062.418      87120        
     57000   57000          557.196        300.08756      10178.941      2999.272       13178.213      63072.163      87120        
     57100   57100          558.13501      300.57948      10099.623      3004.1885      13103.812      62881.838      87120        
     57200   57200          559.0841       291.45033      10117.027      2912.9458      13029.973      62891.888      87120        
     57300   57300          560.00733      297.23237      10109.63       2970.7353      13080.365      62830.362      87120        
     57400   57400          560.95312      303.58043      10094.106      3034.182       13128.288      62870.801      87120        
     57500   57500          561.89114      299.9004       10098.799      2997.4014      13096.2        62759.69       87120        
     57600   57600          562.82867      298.77511      10043.547      2986.1545      13029.702      62580.876      87120        
     57700   57700          563.7701       298.39527      10036.121      2982.3581      13018.479      62593.012      87120        
     57800   57800          564.7199       298.32873      10080.574      2981.6931      13062.267      62675.156      87120        
     57900   57900          565.66751      298.73296      10105.58       2985.7332      13091.313      62811.387      87120        
     58000   58000          566.61247      302.54517      10086.211      3023.8349      13110.046      62745.222      87120        
     58100   58100          567.56168      294.55395      10149.435      2943.9654      13093.401      62977.445      87120        
     58200   58200          568.5056       299.37129      10168.817      2992.1131      13160.93       63127.87       87120        
     58300   58300          569.44594      307.84743      10161.789      3076.8292      13238.618      63116.628      87120        
     58400   58400          570.39355      300.75516      10201.436      3005.9444      13207.38       63198.763      87120        
     58500   58500          571.33416      294.1638       10196.241      2940.066       13136.307      63174.617      87120        
     58600   58600          572.276        292.16112      10232.182      2920.0499      13152.232      63349.863      87120        
     58700   58700          573.21622      296.83377      10227.01       2966.7515      13193.762      63285.917      87120        
     58800   58800          574.15847      301.08556      10179.664      3009.2466      13188.911      63158.352      87120        
     58900   58900          575.1091       302.43191      10158.711      3022.7029      13181.414      63140.413      87120        
     59000   59000          576.05506      301.27367      10213.26       3011.1267      13224.386      63328.667      87120        
     59100   59100          577.00569      305.00401      10134.862      3048.4101      13183.272      63077.971      87120        
     59200   59200          577.94411      291.85584      10158.53       2916.9987      13075.529      63000.931      87120        
     59300   59300          578.88422      300.12594      10080.997      2999.6556      13080.652      62805.763      87120        
     59400   59400          579.82273      306.03098      10087.509      3058.6745      13146.183      62853.133      87120        
     59500   59500          580.76818      306.36826      10105.43       3062.0454      13167.476      62821.236      87120        
     59600   59600          581.71435      303.88425      10093.542      3037.2186      13130.761      62812.778      87120        
     59700   59700          582.65654      303.71659      10067.143      3035.5429      13102.686      62656.063      87120        
     59800   59800          583.61729      302.36078      10040.598      3021.992       13062.59       62549.78       87120        
     59900   59900          584.54489      296.6712       10055.26       2965.1266      13020.387      62573.881      87120        
     60000   60000          585.48465      298.09966      10093.609      2979.4036      13073.012      62702.512      87120        
     60100   60100          586.42588      307.11511      10071.794      3069.5099      13141.304      62630.143      87120        
     60200   60200          587.36025      304.52477      10039.778      3043.6204      13083.398      62493.697      87120        
     60300   60300          588.31697      299.62936      10039.523      2994.6924      13034.215      62550.104      87120        
     60400   60400          589.25757      304.3899       10009.483      3042.2724      13051.755      62480.686      87120        
     60500   60500          590.19944      298.00714      10060.48       2978.4789      13038.959      62575.917      87120        
     60600   60600          591.15094      297.34626      10066.637      2971.8736      13038.511      62710.394      87120        
     60700   60700          592.09529      301.87822      10122.155      3017.169       13139.324      62919.759      87120        
     60800   60800          593.04361      301.75113      10196.568      3015.8988      13212.467      63177.149      87120        
     60900   60900          593.9852       305.25562      10124.805      3050.925       13175.73       62957.698      87120        
     61000   61000          594.93032      295.56285      10171.222      2954.049       13125.271      63036.433      87120        
     61100   61100          595.86899      299.67474      10140.26       2995.146       13135.406      63043.753      87120        
     61200   61200          596.82893      293.40967      10215.623      2932.5287      13148.152      63338.885      87120        
     61300   61300          597.76131      301.89812      10181.038      3017.3679      13198.406      63164.045      87120        
     61400   61400          598.71693      304.18041      10218.235      3040.1786      13258.414      63336.223      87120        
     61500   61500          599.64495      304.99004      10219.197      3048.2706      13267.468      63331.854      87120        
     61600   61600          600.59197      300.63628      10192.06       3004.7563      13196.816      63223.298      87120        
     61700   61700          601.53301      295.66857      10176.399      2955.1057      13131.505      63185.537      87120        
     61800   61800          602.49249      295.85727      10192.45       2956.9917      13149.442      63235.807      87120        
     61900   61900          603.43934      302.23128      10188.473      3020.6977      13209.17       63201.596      87120        
     62000   62000          604.38962      302.33471      10161.548      3021.7315      13183.28       63098.788      87120        
     62100   62100          605.32525      302.62717      10105.413      3024.6545      13130.067      62908.714      87120        
     62200   62200          606.26529      296.32899      10122.061      2961.7063      13083.767      62945.016      87120        
     62300   62300          607.18888      292.55752      10118.009      2924.0118      13042.021      62819.912      87120        
     62400   62400          608.12603      301.47         10119.953      3013.089       13133.042      62869.676      87120        
     62500   62500          609.06448      306.37369      10066.805      3062.0996      13128.905      62620.135      87120        
     62600   62600          610.00643      297.00914      10081.454      2968.5043      13049.959      62620.833      87120        
     62700   62700          610.9513       298.28003      10035.704      2981.2063      13016.91       62550.6        87120        
     62800   62800          611.88632      297.69005      10047.451      2975.3096      13022.76       62577.042      87120        
     62900   62900          612.82208      304.44149      10067.373      3042.788       13110.161      62674.81       87120        
     63000   63000          613.7581       308.40986      10031.801      3082.4505      13114.251      62525.462      87120        
     63100   63100          614.68356      296.5205       10083.431      2963.6205      13047.052      62678.764      87120        
     63200   63200          615.59505      298.58797      10064.785      2984.2841      13049.07       62583.4        87120        
     63300   63300          616.52754      300.70904      10088.313      3005.4835      13093.797      62680.189      87120        
     63400   63400          617.46836      296.16074      10154.894      2960.0247      13114.918      62975.354      87120        
     63500   63500          618.43322      301.4325       10118.019      3012.7142      13130.733      62813.784      87120        
     63600   63600          619.38029      303.65812      10103.466      3034.9585      13138.425      62803.781      87120        
     63700   63700          620.32194      300.32993      10135.42       3001.6943      13137.115      63011.64       87120        
     63800   63800          621.26075      298.84109      10142.07       2986.814       13128.884      62932.347      87120        
     63900   63900          622.20031      296.06859      10154.695      2959.1038      13113.799      62945.045      87120        
     64000   64000          623.13956      298.71767      10176.232      2985.5804      13161.812      63101.922      87120        
     64100   64100          624.0696       307.00439      10187.335      3068.4033      13255.739      63150.166      87120        
     64200   64200          624.99555      306.59092      10147.639      3064.2708      13211.909      62950.524      87120        
     64300   64300          625.9317       298.60241      10139.27       2984.4284      13123.699      62932.732      87120        
     64400   64400          626.8614       293.43086      10189.476      2932.7405      13122.216      63108.225      87120        
     64500   64500          627.79166      300.06071      10160.142      2999.0036      13159.146      62955.397      87120        
     64600   64600          628.72978      302.68661      10138.409      3025.2486      13163.657      62996.357      87120        
     64700   64700          629.66825      299.75908      10068.19       2995.9889      13064.179      62656.387      87120        
     64800   64800          630.59902      288.87166      10098.39       2887.1729      12985.563      62690.78       87120        
     64900   64900          631.52037      298.8446       10074.454      2986.849       13061.303      62670.518      87120        
     65000   65000          632.45748      300.73495      10082.004      3005.7424      13087.746      62596.303      87120        
     65100   65100          633.38468      301.36461      10099.545      3012.0356      13111.581      62723.388      87120        
     65200   65200          634.31311      303.9707       10071.232      3038.0826      13109.315      62659.99       87120        
     65300   65300          635.23803      295.35458      10058.876      2951.9675      13010.843      62492.499      87120        
     65400   65400          636.16508      295.84278      10055.703      2956.8468      13012.55       62551.166      87120        
     65500   65500          637.09289      303.69814      10092.136      3035.3585      13127.494      62707.93       87120        
     65600   65600          638.02185      304.01117      10093.666      3038.4871      13132.153      62723.895      87120        
     65700   65700          638.94821      300.8999       10087.502      3007.3911      13094.893      62705.475      87120        
     65800   65800          639.85913      297.93816      10099.864      2977.7894      13077.654      62785.228      87120        
     65900   65900          640.78728      299.04833      10109.588      2988.8852      13098.473      62830.369      87120        
     66000   66000          641.72571      300.04449      10133.19       2998.8415      13132.032      62867.818      87120        
     66100   66100          642.65686      307.01342      10080.311      3068.4935      13148.805      62746.908      87120        
     66200   66200          643.58004      295.71119      10112.659      2955.5317      13068.191      62784.438      87120        
     66300   66300          644.51143      301.5229       10029.102      3013.6177      13042.72       62501.462      87120        
     66400   66400          645.45226      297.42914      10096.041      2972.702       13068.742      62688.898      87120        
     66500   66500          646.37558      305.34752      10103.688      3051.8435      13155.532      62766.985      87120        
     66600   66600          647.32107      302.87612      10097.299      3027.1426      13124.441      62802.77       87120        
     66700   66700          648.24802      296.76068      10075.392      2966.021       13041.413      62655.813      87120        
     66800   66800          649.18622      294.57325      10105.184      2944.1583      13049.342      62763.179      87120        
     66900   66900          650.13096      298.90797      10101.393      2987.4824      13088.876      62738.564      87120        
     67000   67000          651.07867      300.15946      10116.216      2999.9906      13116.206      62816.105      87120        
     67100   67100          651.99489      295.75502      10149.981      2955.9697      13105.951      62979.939      87120        
     67200   67200          652.91589      299.65707      10143.691      2994.9694      13138.66       62912.155      87120        
     67300   67300          653.85457      304.65613      10156.164      3044.9332      13201.097      62964.374      87120        
     67400   67400          654.77863      311.39759      10167.625      3112.3118      13279.937      63073.156      87120        
     67500   67500          655.71852      303.38132      10148.083      3032.1919      13180.274      62890.902      87120        
     67600   67600          656.64293      302.01819      10076.8        3018.568       13095.368      62621.024      87120        
     67700   67700          657.58686      296.43003      10099.874      2962.7162      13062.591      62770.267      87120        
     67800   67800          658.5249       300.7474       10067.437      3005.8669      13073.304      62631.407      87120        
     67900   67900          659.46611      303.38866      10123.107      3032.2653      13155.372      62853.869      87120        
     68000   68000          660.41315      308.60603      10116.273      3084.4111      13200.684      62830.537      87120        
     68100   68100          661.35283      297.56275      10140.453      2974.0373      13114.491      62851.573      87120        
     68200   68200          662.27969      294.17345      10163.831      2940.1624      13103.993      62987.468      87120        
     68300   68300          663.203        300.90557      10121.223      3007.4477      13128.671      62853.993      87120        
     68400   68400          664.12899      306.93167      10106.636      3067.6765      13174.313      62849.835      87120        
     68500   68500          665.07204      301.46007      10144.356      3012.9898      13157.346      62913.018      87120        
     68600   68600          666.02501      296.33834      10101.564      2961.7998      13063.364      62821.133      87120        
     68700   68700          666.96037      297.30946      10086.481      2971.5058      13057.987      62749.541      87120        
     68800   68800          667.88965      299.03973      10121.566      2988.7993      13110.365      62768.499      87120        
     68900   68900          668.82307      302.85702      10097.987      3026.9517      13124.938      62747.871      87120        
     69000   69000          669.76714      299.57885      10076.662      2994.1875      13070.849      62692.042      87120        
     69100   69100          670.67285      299.85171      10050.545      2996.9148      13047.46       62610.563      87120        
     69200   69200          671.60602      299.35703      10076.7        2991.9705      13068.671      62691.394      87120        
     69300   69300          672.52266      303.5151       10117.652      3033.529       13151.181      62851.875      87120        
     69400   69400          673.45308      309.76092      10154.104      3095.9539      13250.058      63027.859      87120        
     69500   69500          674.38788      302.67467      10150.404      3025.1292      13175.533      63032.423      87120        
     69600   69600          675.33716      298.34666      10117.149      2981.8723      13099.021      62904.903      87120        
     69700   69700          676.27749      297.39079      10108.968      2972.3187      13081.286      62887.184      87120        
     69800   69800          677.21581      301.82825      10117.915      3016.6695      13134.585      62841.477      87120        
     69900   69900          678.14514      308.56236      10125.827      3083.9747      13209.802      62955.655      87120        
     70000   70000          679.06989      299.44597      10173.875      2992.8595      13166.735      63102.315      87120        
     70100   70100          679.98837      297.14719      10122.318      2969.884       13092.202      62913.264      87120        
     70200   70200          680.92628      299.47282      10120.039      2993.1279      13113.166      62931.322      87120        
     70300   70300          681.85372      301.43581      10127.248      3012.7473      13139.995      62945.003      87120        
     70400   70400          682.77582      302.76531      10057.675      3026.0352      13083.71       62628.914      87120        
     70500   70500          683.68436      293.95511      10052.92       2937.9802      12990.9        62571.917      87120        
     70600   70600          684.61332      297.96071      10054.501      2978.0148      13032.515      62593.866      87120        
     70700   70700          685.54131      298.51978      10125.494      2983.6025      13109.097      62821.564      87120        
     70800   70800          686.46428      300.67195      10131.535      3005.1127      13136.648      62926.814      87120        
     70900   70900          687.38351      294.7262       10138.197      2945.687       13083.884      62942.654      87120        
     71000   71000          688.30335      295.72681      9998.0847      2955.6877      12953.772      62321.553      87120        
     71100   71100          689.21716      295.02624      10012.737      2948.6858      12961.423      62440.83       87120        
     71200   71200          690.14408      302.13634      10046.061      3019.7489      13065.81       62604.301      87120        
     71300   71300          691.0883       306.65987      10032.974      3064.9599      13097.934      62527.438      87120        
     71400   71400          692.01679      296.57277      10123.875      2964.1428      13088.018      62806.932      87120        
     71500   71500          692.94628      301.40992      10098.344      3012.4885      13110.833      62819.551      87120        
     71600   71600          693.86231      295.09026      10136.513      2949.3256      13085.839      62861.302      87120        
     71700   71700          694.7831       304.13339      10049.547      3039.7086      13089.256      62625.394      87120        
     71800   71800          695.70317      298.61814      10090.363      2984.5856      13074.949      62712.485      87120        
     71900   71900          696.6268       300.43262      10056.649      3002.7207      13059.37       62553.288      87120        
     72000   72000          697.55481      290.47132      10104.921      2903.161       13008.082      62762.423      87120        
     72100   72100          698.47176      299.86418      10068.492      2997.0394      13065.532      62698.938      87120        
     72200   72200          699.39829      303.72089      10100.353      3035.5858      13135.938      62800.188      87120        
     72300   72300          700.31447      302.25326      10080.711      3020.9174      13101.628      62699.063      87120        
     72400   72400          701.2321       302.15174      10056.497      3019.9027      13076.399      62672.137      87120        
     72500   72500          702.14841      296.51745      10092.759      2963.5899      13056.349      62689.675      87120        
     72600   72600          703.06683      293.65258      10120.09       2934.9566      13055.047      62887.28       87120        
     72700   72700          703.97258      305.40552      10084.645      3052.4232      13137.068      62786.815      87120        
     72800   72800          704.90578      305.74925      10093.897      3055.8586      13149.756      62770.357      87120        
     72900   72900          705.82295      293.43505      10136.008      2932.7824      13068.791      62995.759      87120        
     73000   73000          706.72629      295.94008      10116.118      2957.8193      13073.937      62875.034      87120        
     73100   73100          707.63499      299.85801      10129.025      2996.9777      13126.003      62924.466      87120        
     73200   73200          708.55037      298.98437      10155.05       2988.2459      13143.296      63059.747      87120        
     73300   73300          709.47069      295.97876      10126.3        2958.2059      13084.506      62872.797      87120        
     73400   73400          710.3897       295.79423      10060.811      2956.3616      13017.172      62719.078      87120        
     73500   73500          711.31051      297.27314      10091.343      2971.1428      13062.486      62816.698      87120        
     73600   73600          712.23179      297.05465      10153.278      2968.959       13122.237      62953.169      87120        
     73700   73700          713.1687       307.52406      10082.226      3073.5973      13155.823      62763.391      87120        
     73800   73800          714.08824      301.35471      10045.641      3011.9367      13057.578      62536.028      87120        
     73900   73900          715.00779      294.24731      10025.996      2940.9007      12966.896      62490.313      87120        
     74000   74000          715.92643      293.71455      10058.848      2935.5759      12994.424      62562.977      87120        
     74100   74100          716.83306      297.17632      10070.555      2970.1751      13040.73       62625.221      87120        
     74200   74200          717.73158      303.93438      10038.736      3037.7196      13076.456      62528.586      87120        
     74300   74300          718.64565      298.63425      10080.625      2984.7466      13065.372      62633.274      87120        
     74400   74400          719.55797      291.1135       10131.831      2909.5793      13041.411      62820.238      87120        
     74500   74500          720.47837      299.74531      10085.032      2995.8513      13080.883      62617.197      87120        
     74600   74600          721.40292      303.67909      10112.101      3035.1681      13147.269      62740.819      87120        
     74700   74700          722.34198      302.47116      10081.255      3023.0952      13104.351      62691.383      87120        
     74800   74800          723.26993      296.43169      10054.143      2962.7328      13016.876      62505.421      87120        
     74900   74900          724.1933       296.21996      10103.267      2960.6167      13063.884      62794.42       87120        
     75000   75000          725.11433      301.19133      10117.478      3010.3037      13127.782      62863.098      87120        
     75100   75100          726.02438      299.93104      10120.755      2997.7076      13118.463      62780.17       87120        
     75200   75200          726.93248      299.9442       10104.917      2997.8391      13102.756      62805.157      87120        
     75300   75300          727.8452       299.02651      10116.947      2988.6671      13105.615      62851.749      87120        
     75400   75400          728.75922      301.01591      10106.261      3008.5505      13114.812      62774.824      87120        
     75500   75500          729.67953      298.42235      10132.983      2982.6287      13115.612      62905.039      87120        
     75600   75600          730.60412      299.28257      10128.095      2991.2264      13119.321      62877.338      87120        
     75700   75700          731.52063      293.31702      10145.032      2931.6027      13076.635      62865.728      87120        
     75800   75800          732.4309       294.79539      10097.331      2946.3785      13043.71       62746.774      87120        
     75900   75900          733.34156      301.50729      10088.594      3013.4617      13102.056      62718.107      87120        
     76000   76000          734.25542      306.90302      10077.058      3067.3902      13144.449      62673.156      87120        
     76100   76100          735.17575      295.96776      10107.352      2958.096       13065.448      62767.013      87120        
     76200   76200          736.08817      295.87599      10070.578      2957.1788      13027.756      62635.768      87120        
     76300   76300          737.00361      297.66772      10050.322      2975.0865      13025.409      62535.742      87120        
     76400   76400          737.90349      302.69672      10042.171      3025.3497      13067.52       62627.549      87120        
     76500   76500          738.80968      303.71532      10090.992      3035.5302      13126.522      62753.322      87120        
     76600   76600          739.71485      309.4824       10102.739      3093.1701      13195.909      62790.008      87120        
     76700   76700          740.6229       304.27028      10051.618      3041.0769      13092.695      62640.572      87120        
     76800   76800          741.54093      296.13887      10080.129      2959.8062      13039.935      62624.39       87120        
     76900   76900          742.44447      295.13704      10102.21       2949.7933      13052.004      62723.43       87120        
     77000   77000          743.35644      302.47044      10069.902      3023.088       13092.99       62640.579      87120        
     77100   77100          744.26677      299.51949      10066.711      2993.5943      13060.305      62595.281      87120        
     77200   77200          745.17036      295.26891      10032.535      2951.1112      12983.646      62518.207      87120        
     77300   77300          746.08071      301.24312      10022.521      3010.8213      13033.342      62511.01       87120        
     77400   77400          746.99687      298.57231      10094.171      2984.1275      13078.299      62764.497      87120        
     77500   77500          747.90996      297.09404      10142.503      2969.3528      13111.855      62917.256      87120        
     77600   77600          748.82668      301.36953      10112.156      3012.0848      13124.241      62818.264      87120        
     77700   77700          749.73603      305.64716      10040.029      3054.8383      13094.867      62537.507      87120        
     77800   77800          750.65181      297.54679      10105.804      2973.8778      13079.682      62753.832      87120        
     77900   77900          751.56613      298.36675      10106.046      2982.0731      13088.119      62833.791      87120        
     78000   78000          752.46741      299.74879      10112.536      2995.886       13108.422      62819.913      87120        
     78100   78100          753.37939      298.33345      10144.49       2981.7403      13126.231      62987.637      87120        
     78200   78200          754.28842      298.13321      10155.987      2979.7389      13135.726      62964.328      87120        
     78300   78300          755.19513      300.94848      10145.111      3007.8765      13152.988      62938.024      87120        
     78400   78400          756.11163      297.56107      10143.212      2974.0205      13117.233      62990.233      87120        
     78500   78500          757.00512      293.5781       10113.484      2934.2122      13047.696      62745.241      87120        
     78600   78600          757.91268      298.5576       10098.861      2983.9805      13082.842      62756.535      87120        
     78700   78700          758.81949      305.33525      10135.141      3051.7209      13186.862      62976.145      87120        
     78800   78800          759.72434      303.2204       10133.395      3030.5836      13163.979      62867.232      87120        
     78900   78900          760.63475      297.44772      10097.61       2972.8877      13070.498      62769.354      87120        
     79000   79000          761.5466       302.80698      10051.235      3026.4517      13077.687      62646.669      87120        
     79100   79100          762.43944      301.57548      10100.402      3014.1433      13114.545      62799.717      87120        
     79200   79200          763.347        303.45715      10111.932      3032.9498      13144.881      62841.463      87120        
     79300   79300          764.25161      306.38547      10115.963      3062.2174      13178.18       62863.271      87120        
     79400   79400          765.17064      299.77795      10162.747      2996.1775      13158.924      63044.566      87120        
     79500   79500          766.0853       293.81095      10166.961      2936.5394      13103.5        62986.004      87120        
     79600   79600          766.99779      300.09856      10148.136      2999.3819      13147.518      63003.286      87120        
     79700   79700          767.91117      302.64691      10181.646      3024.8518      13206.498      63070.655      87120        
     79800   79800          768.8251       301.33532      10152.071      3011.7429      13163.814      62925.844      87120        
     79900   79900          769.73756      296.37865      10157.627      2962.2027      13119.83       63026.425      87120        
     80000   80000          770.65056      306.43945      10054.312      3062.7569      13117.069      62648.933      87120        
     80100   80100          771.55286      298.03011      10075.688      2978.7085      13054.397      62659.921      87120        
     80200   80200          772.46042      297.99502      10070.259      2978.3577      13048.617      62723.472      87120        
     80300   80300          773.37336      308.9419       10048.76       3087.768       13136.528      62530.616      87120        
     80400   80400          774.29769      303.14695      10079.455      3029.8495      13109.305      62628.325      87120        
     80500   80500          775.22418      295.62992      10089.52       2954.7194      13044.239      62647.837      87120        
     80600   80600          776.13885      294.42153      10099.924      2942.642       13042.566      62612.682      87120        
     80700   80700          777.03887      307.589        10034.796      3074.2463      13109.042      62519.274      87120        
     80800   80800          777.95495      301.4466       10092.738      3012.8551      13105.593      62667.459      87120        
     80900   80900          778.85451      292.57962      10072.857      2924.2327      12997.089      62546.78       87120        
     81000   81000          779.75386      295.88403      10057.057      2957.2591      13014.316      62639.355      87120        
     81100   81100          780.64178      302.89652      10073.829      3027.3465      13101.176      62695.897      87120        
     81200   81200          781.53537      303.88305      10081.542      3037.2065      13118.749      62615.085      87120        
     81300   81300          782.42881      303.63444      10056.098      3034.7218      13090.819      62669.41       87120        
     81400   81400          783.32723      300.2013       10068.495      3000.4087      13068.904      62714.64       87120        
     81500   81500          784.22872      301.71616      10098.892      3015.5493      13114.442      62806.034      87120        
     81600   81600          785.14318      303.93496      10098.018      3037.7254      13135.743      62864.055      87120        
     81700   81700          786.04895      298.57602      10121.409      2984.1646      13105.574      62925.279      87120        
     81800   81800          786.95376      294.50212      10096.43       2943.4474      13039.878      62736.778      87120        
     81900   81900          787.86927      295.24711      10074.462      2950.8933      13025.355      62757.905      87120        
     82000   82000          788.78221      302.78763      10090.866      3026.2582      13117.125      62830.82       87120        
     82100   82100          789.68282      302.34273      10111.448      3021.8117      13133.259      62777.731      87120        
     82200   82200          790.59948      301.38194      10099.479      3012.2089      13111.688      62858.245      87120        
     82300   82300          791.49987      294.78735      10148.843      2946.2982      13095.141      62938.823      87120        
     82400   82400          792.39874      298.79117      10084.066      2986.315       13070.381      62685.253      87120        
     82500   82500          793.30219      300.63305      10084.111      3004.724       13088.835      62723.852      87120        
     82600   82600          794.20777      299.76921      10116.684      2996.0901      13112.774      62760.615      87120        
     82700   82700          795.10659      303.22877      10065.1        3030.6673      13095.767      62600.468      87120        
     82800   82800          796.01636      296.48615      10043.001      2963.2771      13006.278      62541.273      87120        
     82900   82900          796.93045      291.75129      10057.243      2915.9538      12973.197      62546.823      87120        
     83000   83000          797.83736      299.58615      10049.12       2994.2606      13043.381      62538.366      87120        
     83100   83100          798.74044      301.39898      10071.163      3012.3791      13083.542      62599.958      87120        
     83200   83200          799.63808      301.19813      10057.936      3010.3717      13068.308      62609.201      87120        
     83300   83300          800.53836      297.96439      10058.67       2978.0516      13036.721      62624.368      87120        
     83400   83400          801.43918      296.45458      10058.878      2962.9616      13021.839      62629.273      87120        
     83500   83500          802.342        301.39572      10086.714      3012.3465      13099.06       62773.602      87120        
     83600   83600          803.24529      310.43886      10089.271      3102.7296      13192.001      62782.853      87120        
     83700   83700          804.14417      298.57395      10134.534      2984.1439      13118.678      62903.767      87120        
     83800   83800          805.0456       297.90423      10106.382      2977.4503      13083.832      62767.254      87120        
     83900   83900          805.95124      296.95164      10100.078      2967.9295      13068.008      62747.759      87120        
     84000   84000          806.86094      298.40064      10103.382      2982.4118      13085.794      62817.115      87120        
     84100   84100          807.77498      304.37511      10131.191      3042.1245      13173.315      62850.13       87120        
     84200   84200          808.67575      306.99433      10070.989      3068.3027      13139.292      62683.431      87120        
     84300   84300          809.57103      302.05588      10011.195      3018.9447      13030.14       62444.43       87120        
     84400   84400          810.461        300.03636      9987.8002      2998.7602      12986.56       62274.812      87120        
     84500   84500          811.36811      293.56242      10068.674      2934.0554      13002.729      62567.632      87120        
     84600   84600          812.27001      308.60303      10034.419      3084.3811      13118.8        62518.706      87120        
     84700   84700          813.19         300.29208      10122.561      3001.3161      13123.877      62862.016      87120        
     84800   84800          814.10222      298.88851      10093.61       2987.2879      13080.898      62706.933      87120        
     84900   84900          815.02204      294.24598      10123.222      2940.8874      13064.11       62784.867      87120        
     85000   85000          815.92274      295.17191      10105.418      2950.1417      13055.56       62748.171      87120        
     85100   85100          816.81481      299.18294      10097.872      2990.2306      13088.103      62784.837      87120        
     85200   85200          817.71016      305.77062      10068.033      3056.0722      13124.105      62687.244      87120        
     85300   85300          818.624        299.7412       10083.425      2995.8102      13079.235      62725.062      87120        
     85400   85400          819.52169      293.71708      10065.202      2935.6012      13000.804      62635.048      87120        
     85500   85500          820.42118      296.00927      10096.459      2958.5109      13054.97       62748.265      87120        
     85600   85600          821.33072      308.68902      10042.278      3085.2405      13127.518      62612.289      87120        
     85700   85700          822.23364      304.62359      10035.066      3044.608       13079.674      62607.896      87120        
     85800   85800          823.13883      294.30527      10085.841      2941.48        13027.321      62665.766      87120        
     85900   85900          824.04541      298.57102      10042.061      2984.1146      13026.175      62476.931      87120        
     86000   86000          824.9633       302.71241      10026.763      3025.5065      13052.27       62462.259      87120        
     86100   86100          825.86301      301.08359      10040.786      3009.227       13050.013      62481.816      87120        
     86200   86200          826.7577       299.94265      10044.055      2997.8237      13041.878      62561.67       87120        
     86300   86300          827.64789      301.67478      10000.845      3015.1357      13015.981      62353.147      87120        
     86400   86400          828.55727      298.78916      9987.0919      2986.2949      12973.387      62215.856      87120        
     86500   86500          829.45213      299.09152      9966.9293      2989.3169      12956.246      62262.576      87120        
     86600   86600          830.35976      297.87882      10015.247      2977.1964      12992.443      62398.958      87120        
     86700   86700          831.25531      306.30599      10022.374      3061.4231      13083.797      62444.522      87120        
     86800   86800          832.15934      300.95832      10081.263      3007.975       13089.238      62655.402      87120        
     86900   86900          833.06525      294.95701      10098.177      2947.9939      13046.171      62701.45       87120        
     87000   87000          833.99196      294.70051      10085.818      2945.4303      13031.249      62702.419      87120        
     87100   87100          834.89323      305.73024      10098.43       3055.6686      13154.099      62741.051      87120        
     87200   87200          835.83207      309.78773      10129.624      3096.2218      13225.846      62890.253      87120        
     87300   87300          836.74879      302.39423      10137.573      3022.3263      13159.899      62942.489      87120        
     87400   87400          837.67845      294.81687      10143.937      2946.5933      13090.53       62931.547      87120        
     87500   87500          838.5877       298.09156      10126.458      2979.3226      13105.781      62930.008      87120        
     87600   87600          839.51523      303.60183      10126.363      3034.3959      13160.759      62915.075      87120        
     87700   87700          840.44422      310.09525      10162.204      3099.2953      13261.499      63068.659      87120        
     87800   87800          841.37191      308.10605      10116.056      3079.414       13195.47       62909.309      87120        
     87900   87900          842.28519      296.86215      10127.145      2967.0351      13094.18       62862.3        87120        
     88000   88000          843.19347      301.60342      10049.729      3014.4224      13064.152      62573.987      87120        
     88100   88100          844.10666      301.09066      10017.692      3009.2976      13026.99       62420.92       87120        
     88200   88200          845.01766      301.42564      10018.077      3012.6457      13030.722      62399.79       87120        
     88300   88300          845.92581      303.99575      10016.677      3038.333       13055.01       62409.969      87120        
     88400   88400          846.85314      299.30372      10056.849      2991.4378      13048.287      62550.291      87120        
     88500   88500          847.78007      297.67005      10030.966      2975.1098      13006.076      62490.745      87120        
     88600   88600          848.68485      289.26344      10071.006      2891.0886      12962.095      62558.288      87120        
     88700   88700          849.58822      306.77527      9986.9245      3066.1133      13053.038      62253.02       87120        
     88800   88800          850.50156      306.3951       10022.717      3062.3136      13085.031      62491.281      87120        
     88900   88900          851.42269      299.2902       10069.629      2991.3026      13060.931      62663.278      87120        
     89000   89000          852.3451       297.62865      10077.55       2974.696       13052.247      62709.984      87120        
     89100   89100          853.28124      295.52213      10144.801      2953.6421      13098.443      63003.644      87120        
     89200   89200          854.20482      302.28867      10145.323      3021.2713      13166.594      62982.999      87120        
     89300   89300          855.13627      302.26047      10178.946      3020.9894      13199.935      63093.616      87120        
     89400   89400          856.06146      290.69861      10189.564      2905.4326      13094.996      63173.889      87120        
     89500   89500          856.97676      289.71471      10120.64       2895.5989      13016.239      62899.933      87120        
     89600   89600          857.91216      300.62479      10107.566      3004.6414      13112.207      62883.438      87120        
     89700   89700          858.84655      306.57538      10082.545      3064.1155      13146.661      62789.451      87120        
     89800   89800          859.75964      300.93901      10088.25       3007.7819      13096.032      62705.869      87120        
     89900   89900          860.69786      295.80319      10061.261      2956.4512      13017.713      62619.041      87120        
     90000   90000          861.61397      294.52157      10047.482      2943.6418      12991.124      62478.964      87120        
     90100   90100          862.51445      300.61563      10093.164      3004.5498      13097.714      62662.89       87120        
     90200   90200          863.41751      304.0496       10071.418      3038.8712      13110.289      62630.814      87120        
     90300   90300          864.31139      300.31423      10065.638      3001.5375      13067.176      62587.277      87120        
     90400   90400          865.20457      294.60189      10045.138      2944.4445      12989.582      62476.345      87120        
     90500   90500          866.08959      298.49703      10026.325      2983.3752      13009.701      62417.746      87120        
     90600   90600          866.98676      303.05822      10039.309      3028.9627      13068.271      62493.21       87120        
     90700   90700          867.89596      304.75391      10005.2        3045.9106      13051.111      62350.159      87120        
     90800   90800          868.79573      298.89735      10046.381      2987.3762      13033.757      62541.34       87120        
     90900   90900          869.68351      301.81098      10031.737      3016.497       13048.234      62483.398      87120        
     91000   91000          870.5888       307.45266      10013.082      3072.8837      13085.966      62377.564      87120        
     91100   91100          871.48561      297.43166      10077.343      2972.7271      13050.07       62671.537      87120        
     91200   91200          872.38832      293.4186       10067.327      2932.618       12999.945      62622.906      87120        
     91300   91300          873.28394      298.32594      10075.478      2981.6651      13057.143      62662.179      87120        
     91400   91400          874.17344      308.88941      10058.138      3087.2435      13145.382      62663.903      87120        
     91500   91500          875.06953      305.22552      10056.535      3050.6241      13107.159      62572.7        87120        
     91600   91600          875.96839      297.87599      10039.204      2977.168       13016.373      62493.524      87120        
     91700   91700          876.87315      294.17092      10125.812      2940.1372      13065.949      62823.074      87120        
     91800   91800          877.78211      310.77195      10044.648      3106.0588      13150.707      62573.089      87120        
     91900   91900          878.71391      304.76591      10076.396      3046.0305      13122.427      62709.734      87120        
     92000   92000          879.63493      292.49328      10135.303      2923.3697      13058.672      62908.602      87120        
     92100   92100          880.55653      293.89668      10126.582      2937.3963      13063.978      62847.283      87120        
     92200   92200          881.47656      303.44059      10086.296      3032.7843      13119.081      62748.814      87120        
     92300   92300          882.39751      299.93142      10119.873      2997.7114      13117.584      62871.275      87120        
     92400   92400          883.31256      300.03821      10104.932      2998.7787      13103.711      62780.856      87120        
     92500   92500          884.22885      298.965        10137.392      2988.0524      13125.444      62918.35       87120        
     92600   92600          885.16074      306.62899      10115.967      3064.6513      13180.618      62898.736      87120        
     92700   92700          886.08651      304.83668      10095.582      3046.7378      13142.319      62813.243      87120        
     92800   92800          887.02154      297.8177       10051.291      2976.5855      13027.876      62589.003      87120        
     92900   92900          887.93502      298.58099      10012.797      2984.2143      12997.011      62441.817      87120        
     93000   93000          888.84232      297.12582      10056.484      2969.6704      13026.154      62497.265      87120        
     93100   93100          889.73381      310.80547      9965.1734      3106.3937      13071.567      62221.741      87120        
     93200   93200          890.63088      297.75305      10063.056      2975.9393      13038.995      62553.595      87120        
     93300   93300          891.51593      299.3064       10009.645      2991.4646      13001.11       62306.275      87120        
     93400   93400          892.41357      299.13353      9983.5879      2989.7368      12973.325      62212.229      87120        
     93500   93500          893.30064      295.57688      9991.1121      2954.1892      12945.301      62235.41       87120        
     93600   93600          894.1858       293.26079      9999.0338      2931.0408      12930.075      62246.827      87120        
     93700   93700          895.07461      303.96114      9987.8569      3037.9871      13025.844      62319.888      87120        
     93800   93800          895.97404      307.15089      10001.089      3069.8675      13070.956      62412.468      87120        
     93900   93900          896.8705       291.86567      10086.402      2917.097       13003.499      62604.021      87120        
     94000   94000          897.77375      293.70545      10066.632      2935.485       13002.117      62541.32       87120        
     94100   94100          898.66582      302.10551      10107.207      3019.4407      13126.647      62766.445      87120        
     94200   94200          899.56685      299.71128      10202.768      2995.5112      13198.279      63068.991      87120        
     94300   94300          900.47246      302.21261      10187.985      3020.5111      13208.496      63033.192      87120        
     94400   94400          901.38282      302.51446      10111.187      3023.528       13134.715      62806.625      87120        
     94500   94500          902.30838      298.7009       10117.645      2985.4128      13103.057      62826.859      87120        
     94600   94600          903.2309       296.73609      10137.737      2965.7751      13103.513      62954.25       87120        
     94700   94700          904.15724      301.74647      10141.305      3015.8522      13157.157      62943.028      87120        
     94800   94800          905.09435      300.11466      10158.507      2999.5429      13158.05       62979.305      87120        
     94900   94900          906.0164       297.12641      10067.159      2969.6763      13036.835      62680.995      87120        
     95000   95000          906.9292       296.33651      10055.027      2961.7815      13016.808      62559.483      87120        
     95100   95100          907.828        297.79554      10070.451      2976.3641      13046.815      62610.543      87120        
     95200   95200          908.73913      300.51021      10103.988      3003.4962      13107.484      62713.367      87120        
     95300   95300          909.64577      304.7027       10064.842      3045.3987      13110.241      62593.592      87120        
     95400   95400          910.54983      303.93367      10023.035      3037.7125      13060.748      62431.395      87120        
     95500   95500          911.46067      299.30783      10012.72       2991.4789      13004.199      62365.202      87120        
     95600   95600          912.36447      294.98424      10069.274      2948.266       13017.54       62574.846      87120        
     95700   95700          913.28281      302.88125      10042.249      3027.1939      13069.443      62429.223      87120        
     95800   95800          914.18244      304.07903      10044.985      3039.1654      13084.15       62500.021      87120        
     95900   95900          915.08157      299.05733      10045.657      2988.9752      13034.632      62451.565      87120        
     96000   96000          915.98628      301.13726      10011.957      3009.7634      13021.72       62368.778      87120        
     96100   96100          916.88198      290.63191      10105.363      2904.766       13010.129      62685.653      87120        
     96200   96200          917.80029      302.70416      10072.257      3025.424       13097.681      62643.118      87120        
     96300   96300          918.70682      310.2683       10063.04       3101.0249      13164.065      62524.217      87120        
     96400   96400          919.62823      303.18204      10078.215      3030.2002      13108.415      62689.242      87120        
     96500   96500          920.54608      300.26703      10062.618      3001.0657      13063.684      62652.633      87120        
     96600   96600          921.45597      301.88236      10056.177      3017.2104      13073.387      62566.348      87120        
     96700   96700          922.36674      298.75699      10106.97       2985.9734      13092.943      62722.954      87120        
     96800   96800          923.27851      302.85438      10073.636      3026.9253      13100.562      62627.144      87120        
     96900   96900          924.20476      294.07238      10096.374      2939.1523      13035.527      62692.199      87120        
     97000   97000          925.11753      293.14632      10070.682      2929.8967      13000.578      62549.414      87120        
     97100   97100          926.02554      302.44702      10066.054      3022.854       13088.908      62600.5        87120        
     97200   97200          926.94379      302.55272      10093.666      3023.9104      13117.576      62665.416      87120        
     97300   97300          927.84619      303.40803      10054.01       3032.4589      13086.469      62525.88       87120        
     97400   97400          928.76197      295.77475      10053.521      2956.167       13009.688      62507.514      87120        
     97500   97500          929.66372      294.86559      10061.802      2947.0801      13008.882      62484.656      87120        
     97600   97600          930.56541      297.41069      10063.248      2972.5175      13035.765      62566.242      87120        
     97700   97700          931.46522      301.13579      10071.153      3009.7486      13080.902      62627.344      87120        
     97800   97800          932.37363      303.39156      10072.724      3032.2943      13105.018      62604.301      87120        
     97900   97900          933.27992      297.22363      10044.041      2970.648       13014.689      62488.88       87120        
     98000   98000          934.19007      293.30826      10022.856      2931.5152      12954.372      62379.325      87120        
     98100   98100          935.07858      295.20241      10058.761      2950.4465      13009.207      62494.285      87120        
     98200   98200          935.97411      303.29085      10013.469      3031.2877      13044.756      62373.581      87120        
     98300   98300          936.8782       299.22697      10046.018      2990.6707      13036.689      62500.429      87120        
     98400   98400          937.77954      295.83916      10073.498      2956.8106      13030.309      62559.184      87120        
     98500   98500          938.68716      304.99939      10045.231      3048.364       13093.595      62609.203      87120        
     98600   98600          939.59827      301.6969       10109.037      3015.3567      13124.394      62806.253      87120        
     98700   98700          940.51124      293.47277      10114.381      2933.1594      13047.54       62741.208      87120        
     98800   98800          941.42324      297.83227      10026.417      2976.7312      13003.148      62522.37       87120        
     98900   98900          942.33792      295.6756       10077.5        2955.176       13032.676      62688.691      87120        
     99000   99000          943.25093      304.86944      10078.276      3047.0652      13125.341      62644.618      87120        
     99100   99100          944.15291      305.85758      10030.616      3056.9413      13087.557      62477.062      87120        
     99200   99200          945.06145      298.76916      10052.942      2986.095       13039.037      62513.28       87120        
     99300   99300          945.98084      298.5688       10067.657      2984.0925      13051.75       62604.224      87120        
     99400   99400          946.90308      301.28433      10103.062      3011.2333      13114.295      62708.923      87120        
     99500   99500          947.82716      304.59601      10132.366      3044.3324      13176.699      62822.037      87120        
     99600   99600          948.74362      298.55279      10068.195      2983.9324      13052.128      62659.609      87120        
     99700   99700          949.67005      299.6472       10025.268      2994.8707      13020.138      62483.01       87120        
     99800   99800          950.57939      297.59111      10043.602      2974.3208      13017.923      62537.98       87120        
     99900   99900          951.48587      303.15303      10013.154      3029.9103      13043.064      62429.062      87120        
    100000   100000         952.39631      299.03759      10024.448      2988.7779      13013.225      62473.698      87120        
    100100   100100         953.30226      290.25004      10050.339      2900.9493      12951.289      62468.704      87120        
    100200   100200         954.20669      297.31566      10037.674      2971.5678      13009.242      62468.927      87120        
    100300   100300         955.10763      305.10348      10060.67       3049.4043      13110.075      62613.949      87120        
    100400   100400         956.00956      301.62132      10076.409      3014.6014      13091.011      62543.449      87120        
    100500   100500         956.91189      303.92752      9999.5477      3037.6511      13037.199      62303.193      87120        
    100600   100600         957.80196      296.32056      10029.508      2961.6221      12991.13       62452.602      87120        
    100700   100700         958.71405      299.2985       10016.863      2991.3856      13008.249      62377.225      87120        
    100800   100800         959.62414      301.48894      10020.056      3013.2783      13033.334      62362.116      87120        
    100900   100900         960.53536      300.21426      10029.628      3000.5383      13030.166      62391.559      87120        
    101000   101000         961.45848      301.25746      10026.732      3010.9647      13037.697      62460.803      87120        
    101100   101100         962.35455      301.69386      10003.921      3015.3263      13019.247      62342.543      87120        
    101200   101200         963.25401      300.07757      9983.8931      2999.1721      12983.065      62279.701      87120        
    101300   101300         964.17187      297.77602      10024.837      2976.1689      13001.006      62421.905      87120        
    101400   101400         965.06458      302.00217      10025.972      3018.4079      13044.38       62504.585      87120        
    101500   101500         965.97663      303.91937      10064.054      3037.5695      13101.623      62606.54       87120        
    101600   101600         966.87593      306.14691      10060.239      3059.8331      13120.072      62639.129      87120        
    101700   101700         967.79161      295.08889      10057.73       2949.312       13007.042      62545.502      87120        
    101800   101800         968.70869      295.93562      10056.275      2957.7748      13014.05       62546.359      87120        
    101900   101900         969.62722      299.92859      10066.842      2997.6831      13064.525      62592.62       87120        
    102000   102000         970.52935      301.60158      10107.696      3014.4041      13122.1        62795.706      87120        
    102100   102100         971.43816      307.60906      10085.689      3074.4468      13160.135      62738.544      87120        
    102200   102200         972.34945      303.87811      10076.215      3037.1572      13113.372      62618.867      87120        
    102300   102300         973.2562       296.57735      10042.94       2964.1887      13007.129      62454.361      87120        
    102400   102400         974.16391      293.77755      10067.565      2936.2056      13003.77       62554.518      87120        
    102500   102500         975.07603      305.25452      10041.602      3050.914       13092.516      62460.806      87120        
    102600   102600         976.00992      306.06831      10048.344      3059.0475      13107.392      62483.527      87120        
    102700   102700         976.91936      294.46782      10108.084      2943.1046      13051.189      62686.517      87120        
    102800   102800         977.82754      295.13746      10095.406      2949.7974      13045.204      62614.69       87120        
    102900   102900         978.73404      299.75902      10063.198      2995.9883      13059.186      62497.72       87120        
    103000   103000         979.63203      303.39015      10017.584      3032.2802      13049.864      62409.401      87120        
    103100   103100         980.51815      302.45929      9973.4758      3022.9765      12996.452      62194.472      87120        
    103200   103200         981.4077       294.77478      9973.5228      2946.1726      12919.695      62135.232      87120        
    103300   103300         982.30145      302.38024      9985.4907      3022.1865      13007.677      62235.231      87120        
    103400   103400         983.19908      300.99524      10051.386      3008.344       13059.73       62457.182      87120        
    103500   103500         984.08658      301.09286      10039.975      3009.3196      13049.294      62383.078      87120        
    103600   103600         984.9887       296.65781      10026.328      2964.9928      12991.321      62365.847      87120        
    103700   103700         985.88663      291.71548      9978.8531      2915.5959      12894.449      62115.323      87120        
    103800   103800         986.78346      284.72262      10007.624      2845.7046      12853.329      62266.376      87120        
    103900   103900         987.67894      292.26095      10052.79       2921.0476      12973.838      62480.345      87120        
    104000   104000         988.58103      307.81934      10004.684      3076.5485      13081.233      62318.948      87120        
    104100   104100         989.47959      298.67578      10079.514      2985.1617      13064.676      62585.515      87120        
    104200   104200         990.3813       297.62352      10048.62       2974.6448      13023.264      62514.784      87120        
    104300   104300         991.28409      292.63135      10073.445      2924.7497      12998.195      62513.236      87120        
    104400   104400         992.19058      305.48163      10067.668      3053.1838      13120.852      62600.833      87120        
    104500   104500         993.09931      304.20427      10102.68       3040.417       13143.097      62703.682      87120        
    104600   104600         994.01406      295.44573      10137.761      2952.8784      13090.64       62746.01       87120        
    104700   104700         994.92528      301.03307      10067.037      3008.722       13075.759      62589.883      87120        
    104800   104800         995.83326      297.4126       10067.286      2972.5366      13039.823      62571.726      87120        
    104900   104900         996.75388      297.19169      10069.951      2970.3288      13040.28       62498.474      87120        
    105000   105000         997.66946      301.68347      10025.404      3015.2226      13040.626      62424.531      87120        
    105100   105100         998.5906       297.53873      10048.836      2973.7973      13022.633      62479.533      87120        
    105200   105200         999.4938       299.52797      10051.507      2993.6791      13045.186      62425.196      87120        
    105300   105300         1000.4069      303.07523      10071.224      3029.1327      13100.357      62541.212      87120        
    105400   105400         1001.3141      304.75794      10001.972      3045.9508      13047.923      62267.419      87120        
    105500   105500         1002.2228      294.14437      9987.4685      2939.8718      12927.34       62158.902      87120        
    105600   105600         1003.1189      295.53337      10007.259      2953.7544      12961.014      62298.977      87120        
    105700   105700         1004.0133      305.51697      9979.8212      3053.5371      13033.358      62203.579      87120        
    105800   105800         1004.9109      302.33359      9970.9831      3021.7203      12992.703      62094.485      87120        
    105900   105900         1005.8219      292.76896      9985.708       2926.1251      12911.833      62207.271      87120        
    106000   106000         1006.7272      292.84887      9983.5648      2926.9237      12910.488      62178.294      87120        
    106100   106100         1007.6111      302.92733      10031.285      3027.6545      13058.94       62422.776      87120        
    106200   106200         1008.5013      304.65413      10042.817      3044.9133      13087.73       62429.467      87120        
    106300   106300         1009.3932      302.58953      9994.3254      3024.2783      13018.604      62229.438      87120        
    106400   106400         1010.2861      299.68548      9972.4867      2995.2533      12967.74       62150.135      87120        
    106500   106500         1011.1841      299.37973      10013.085      2992.1975      13005.282      62316.425      87120        
    106600   106600         1012.0846      301.9909       10049.142      3018.2952      13067.437      62414.866      87120        
    106700   106700         1012.9839      302.8462       10043.232      3026.8436      13070.075      62492.294      87120        
    106800   106800         1013.8873      292.49279      10032.956      2923.3649      12956.321      62369.467      87120        
    106900   106900         1014.8057      294.67489      10044.284      2945.1742      12989.458      62381.796      87120        
    107000   107000         1015.7258      305.26435      10004.381      3051.0122      13055.394      62332.318      87120        
    107100   107100         1016.625       304.844        10035.827      3046.811       13082.638      62415.058      87120        
    107200   107200         1017.5267      299.35504      10061.697      2991.9506      13053.647      62453.901      87120        
    107300   107300         1018.4395      293.60998      10057.238      2934.5308      12991.769      62481.73       87120        
    107400   107400         1019.3415      297.26835      10044.68       2971.095       13015.775      62442.089      87120        
    107500   107500         1020.2614      300.32122      10021.733      3001.6073      13023.341      62371.944      87120        
    107600   107600         1021.1631      299.98984      10039.513      2998.2953      13037.808      62433.996      87120        
    107700   107700         1022.0636      302.90108      10034.206      3027.3921      13061.598      62348.021      87120        
    107800   107800         1022.9636      300.43961      10033.811      3002.7906      13036.601      62380.955      87120        
    107900   107900         1023.8614      292.43639      10028.612      2922.8012      12951.413      62331.519      87120        
    108000   108000         1024.7605      295.13645      9999.2012      2949.7874      12948.989      62255.428      87120        
    108100   108100         1025.6677      302.02655      10035.109      3018.6515      13053.761      62357.436      87120        
    108200   108200         1026.565       303.57762      10043.075      3034.1539      13077.229      62397.848      87120        
    108300   108300         1027.4896      305.03538      9960.2076      3048.7237      13008.931      62097.509      87120        
    108400   108400         1028.3897      300.46172      9946.0333      3003.0115      12949.045      62038.472      87120        
    108500   108500         1029.2925      296.98001      9985.4518      2968.2131      12953.665      62179.432      87120        
    108600   108600         1030.1922      302.59802      9987.3768      3024.3631      13011.74       62215.889      87120        
    108700   108700         1031.0911      304.95224      9976.9041      3047.8928      13024.797      62205.835      87120        
    108800   108800         1032.0108      302.05058      10001.204      3018.8917      13020.095      62313.6        87120        
    108900   108900         1032.9164      302.52321      9967.2986      3023.6155      12990.914      62160.505      87120        
    109000   109000         1033.844       298.67273      9994.7397      2985.1312      12979.871      62257.113      87120        
    109100   109100         1034.7439      297.38898      10021.153      2972.3006      12993.453      62377.527      87120        
    109200   109200         1035.6468      305.78225      10003.138      3056.1884      13059.327      62321.19       87120        
    109300   109300         1036.5636      306.05964      9986.8493      3058.9608      13045.81       62263.629      87120        
    109400   109400         1037.4651      295.51865      10003.958      2953.6072      12957.565      62327.746      87120        
    109500   109500         1038.386       295.98415      10029.265      2958.2598      12987.524      62429.402      87120        
    109600   109600         1039.2949      303.56084      10025.023      3033.9862      13059.009      62439.656      87120        
    109700   109700         1040.2183      303.27369      10037.445      3031.1163      13068.562      62504.272      87120        
    109800   109800         1041.1301      297.08246      10009.461      2969.237       12978.698      62351.24       87120        
    109900   109900         1042.042       293.27438      9986.9072      2931.1766      12918.084      62261.694      87120        
    110000   110000         1042.9569      302.13009      10003.647      3019.6863      13023.333      62316.871      87120        
    110100   110100         1043.8582      305.05899      10034.94       3048.9597      13083.899      62486.651      87120        
    110200   110200         1044.7729      300.48501      10029.936      3003.2443      13033.18       62424.886      87120        
    110300   110300         1045.6847      297.61119      10000.509      2974.5215      12975.031      62260.822      87120        
    110400   110400         1046.5874      300.36528      9985.0079      3002.0476      12987.056      62216.069      87120        
    110500   110500         1047.4986      306.96433      10003.384      3068.0029      13071.387      62307.976      87120        
    110600   110600         1048.4109      311.62852      9954.3955      3114.6199      13069.015      62116.395      87120        
    110700   110700         1049.3068      300.34329      10001.572      3001.8278      13003.4        62245.738      87120        
    110800   110800         1050.2283      297.9634       10003.462      2978.0418      12981.504      62205.93       87120        
    110900   110900         1051.1335      299.41749      10003.001      2992.5748      12995.576      62246.614      87120        
    111000   111000         1052.0496      303.55577      10003.606      3033.9355      13037.542      62268.677      87120        
    111100   111100         1052.9429      310.08064      9999.4896      3099.1494      13098.639      62237.613      87120        
    111200   111200         1053.8448      299.67863      10001.038      2995.1848      12996.223      62188.257      87120        
    111300   111300         1054.752       297.55582      9985.949       2973.9681      12959.917      62132.98       87120        
    111400   111400         1055.6477      301.96332      9942.7051      3018.0195      12960.725      61986.014      87120        
    111500   111500         1056.5607      292.89864      10020.85       2927.4212      12948.271      62267.528      87120        
    111600   111600         1057.4609      303.75438      10005.637      3035.9206      13041.558      62221.559      87120        
    111700   111700         1058.3556      304.38441      10018.202      3042.2175      13060.42       62271.142      87120        
    111800   111800         1059.2709      301.20147      10009.938      3010.4051      13020.343      62268.995      87120        
    111900   111900         1060.1735      299.23114      10036.561      2990.7123      13027.273      62396.087      87120        
    112000   112000         1061.0866      301.908        10006.666      3017.4666      13024.133      62310.613      87120        
    112100   112100         1061.992       294.65111      10075.93       2944.9366      13020.867      62533.811      87120        
    112200   112200         1062.8905      303.35646      10093.964      3031.9435      13125.908      62634.078      87120        
    112300   112300         1063.8119      308.70919      10094.125      3085.4422      13179.567      62657.394      87120        
    112400   112400         1064.7139      307.2422       10022.906      3070.7801      13093.686      62399.617      87120        
    112500   112500         1065.6168      297.10911      10049.728      2969.5034      13019.231      62409.424      87120        
    112600   112600         1066.5226      296.00253      10080.599      2958.4435      13039.042      62548.826      87120        
    112700   112700         1067.4484      303.39111      10051.973      3032.2899      13084.263      62482.557      87120        
    112800   112800         1068.3567      302.15721      10055.281      3019.9574      13075.238      62452.592      87120        
    112900   112900         1069.274       299.1502       9960.5199      2989.9034      12950.423      62128.233      87120        
    113000   113000         1070.1743      291.66979      9987.9245      2915.1392      12903.064      62186.566      87120        
    113100   113100         1071.0649      302.70989      9917.064       3025.4812      12942.545      61928.831      87120        
    113200   113200         1071.9508      302.6503       9935.394       3024.8856      12960.28       62013.43       87120        
    113300   113300         1072.8519      296.85784      9968.5512      2966.9921      12935.543      62074.061      87120        
    113400   113400         1073.7469      300.92184      9945.173       3007.6103      12952.783      61983.585      87120        
    113500   113500         1074.6408      302.86115      10004.532      3026.993       13031.525      62145.138      87120        
    113600   113600         1075.5361      301.90197      9997.3574      3017.4064      13014.764      62155.819      87120        
    113700   113700         1076.4459      297.3971       9986.9433      2972.3817      12959.325      62133.853      87120        
    113800   113800         1077.3383      294.5058       10009.332      2943.4842      12952.816      62214.028      87120        
    113900   113900         1078.2352      299.98806      9990.2371      2998.2775      12988.515      62164.6        87120        
    114000   114000         1079.1299      304.90789      9977.482       3047.4495      13024.931      62144.274      87120        
    114100   114100         1080.013       304.84885      9952.8972      3046.8594      12999.757      62046.166      87120        
    114200   114200         1080.8995      300.43309      9991.7803      3002.7254      12994.506      62177.168      87120        
    114300   114300         1081.8074      300.23001      10001.062      3000.6957      13001.758      62182.226      87120        
    114400   114400         1082.7035      300.08167      9967.7675      2999.213       12966.981      62161.853      87120        
    114500   114500         1083.6009      290.13528      9983.8036      2899.8023      12883.606      62150.985      87120        
    114600   114600         1084.5051      294.65917      10003.973      2945.0171      12948.99       62254.811      87120        
    114700   114700         1085.4047      300.35578      10013.954      3001.9527      13015.906      62373.358      87120        
    114800   114800         1086.3217      299.41237      10014.134      2992.5236      13006.657      62290.087      87120        
    114900   114900         1087.2269      296.52294      10030.706      2963.6448      12994.35       62394.179      87120        
    115000   115000         1088.1419      301.0801       10034.115      3009.192       13043.307      62412.406      87120        
    115100   115100         1089.0445      303.6903       10056.944      3035.2802      13092.224      62418.073      87120        
    115200   115200         1089.9468      303.29371      10010.825      3031.3163      13042.141      62322.24       87120        
    115300   115300         1090.845       295.0912       9995.0431      2949.3351      12944.378      62209.086      87120        
    115400   115400         1091.7411      299.97979      9974.9407      2998.1949      12973.136      62121.755      87120        
    115500   115500         1092.6352      301.72362      10018.831      3015.6238      13034.455      62354.973      87120        
    115600   115600         1093.5299      302.31355      10023.698      3021.52        13045.218      62288.329      87120        
    115700   115700         1094.4234      302.62374      9964.071       3024.6202      12988.691      62052.797      87120        
    115800   115800         1095.3286      299.24979      9935.2597      2990.8988      12926.158      61919.759      87120        
    115900   115900         1096.2237      298.82424      9958.7221      2986.6455      12945.368      62006.717      87120        
    116000   116000         1097.1203      306.53886      10018.006      3063.7505      13081.757      62206.511      87120        
    116100   116100         1098.0248      304.04635      10004.318      3038.8387      13043.157      62186.369      87120        
    116200   116200         1098.9125      297.05714      9982.5056      2968.984       12951.49       62081.062      87120        
    116300   116300         1099.8135      299.61473      9945.0873      2994.5462      12939.633      61948.276      87120        
    116400   116400         1100.6973      299.44396      9976.1728      2992.8394      12969.012      62161.695      87120        
    116500   116500         1101.5856      303.66068      9967.7194      3034.9841      13002.704      62113.871      87120        
    116600   116600         1102.4822      305.15281      10041.286      3049.8974      13091.183      62339.797      87120        
    116700   116700         1103.3957      304.44335      10022.952      3042.8065      13065.759      62441.072      87120        
    116800   116800         1104.3011      296.61552      10033.217      2964.5702      12997.787      62401.008      87120        
    116900   116900         1105.2043      299.68419      10043.933      2995.2404      13039.173      62413.199      87120        
    117000   117000         1106.106       302.27224      10038.644      3021.1071      13059.751      62459.618      87120        
    117100   117100         1107.0012      296.39852      10056.018      2962.4013      13018.419      62442.309      87120        
    117200   117200         1107.9025      295.57025      10041.424      2954.123       12995.547      62466.265      87120        
    117300   117300         1108.8068      300.1531       10060.914      2999.927       13060.841      62540.673      87120        
    117400   117400         1109.7123      304.01585      10073.128      3038.5339      13111.662      62531.826      87120        
    117500   117500         1110.6193      300.94878      10064.14       3007.8796      13072.02       62513.608      87120        
    117600   117600         1111.5264      296.75302      10093.203      2965.9444      13059.147      62618.877      87120        
    117700   117700         1112.4325      302.18979      10043.379      3020.283       13063.662      62438.489      87120        
    117800   117800         1113.339       299.12678      10074.004      2989.6693      13063.673      62517.843      87120        
    117900   117900         1114.2535      311.94729      9978.885       3117.8059      13096.691      62087.087      87120        
    118000   118000         1115.1474      298.81589      9981.8112      2986.5621      12968.373      62044.023      87120        
    118100   118100         1116.0235      298.78651      9917.6227      2986.2685      12903.891      61831.846      87120        
    118200   118200         1116.9035      303.9536       9869.5589      3037.9117      12907.471      61699.505      87120        
    118300   118300         1117.797       303.34988      9923.294       3031.8777      12955.172      61819.61       87120        
    118400   118400         1118.6746      305.08291      9908.7552      3049.1988      12957.954      61691.402      87120        
    118500   118500         1119.5581      289.43748      9975.978       2892.8281      12868.806      61963.027      87120        
    118600   118600         1120.4607      297.87934      9919.4824      2977.2015      12896.684      61745.628      87120        
    118700   118700         1121.3468      298.62507      9960.9386      2984.6548      12945.593      61979.545      87120        
    118800   118800         1122.2421      303.78922      9936.1169      3036.2688      12972.386      61970.384      87120        
    118900   118900         1123.1375      298.5571       10001.565      2983.9755      12985.54       62092.632      87120        
    119000   119000         1124.0523      296.90016      10042.946      2967.415       13010.361      62289.929      87120        
    119100   119100         1124.9456      301.00466      10019.379      3008.4381      13027.817      62275.642      87120        
    119200   119200         1125.8407      302.74552      9980.9983      3025.8373      13006.836      62184.806      87120        
    119300   119300         1126.7401      298.91707      9986.9785      2987.5733      12974.552      62171.736      87120        
    119400   119400         1127.656       297.4439       10031.191      2972.8495      13004.04       62269.505      87120        
    119500   119500         1128.5722      306.30977      10007.439      3061.4608      13068.9        62276.952      87120        
    119600   119600         1129.4826      300.42352      10018.228      3002.6298      13020.858      62238.239      87120        
    119700   119700         1130.3999      292.54116      10019.036      2923.8483      12942.884      62269.659      87120        
    119800   119800         1131.3175      293.70305      10011.465      2935.4609      12946.926      62255.895      87120        
    119900   119900         1132.2293      302.17924      9968.4576      3020.1776      12988.635      62053.478      87120        
    120000   120000         1133.1299      301.50351      9954.0237      3013.4239      12967.448      62000.411      87120        
    120100   120100         1134.0258      301.88907      9920.7777      3017.2775      12938.055      61912.695      87120        
    120200   120200         1134.9309      296.60348      9941.289       2964.4498      12905.739      61950.089      87120        
    120300   120300         1135.8196      302.89889      9925.3364      3027.3702      12952.707      61880.34       87120        
    120400   120400         1136.7258      304.03612      9965.2226      3038.7364      13003.959      61986.748      87120        
    120500   120500         1137.6302      297.31856      9986.7976      2971.5968      12958.394      62083.462      87120        
    120600   120600         1138.5149      292.06767      9930.8119      2919.1159      12849.928      61848.411      87120        
    120700   120700         1139.397       292.93824      9948.7902      2927.817       12876.607      61945.448      87120        
    120800   120800         1140.2936      300.65655      9940.9751      3004.9588      12945.934      61899.061      87120        
    120900   120900         1141.1825      297.7585       9986.5564      2975.9938      12962.55       61993.2        87120        
    121000   121000         1142.0962      297.78148      9992.3581      2976.2234      12968.581      62120.004      87120        
    121100   121100         1142.9897      300.02619      9950.3301      2998.6586      12948.989      61966.853      87120        
    121200   121200         1143.8796      298.19563      10003.175      2980.3627      12983.538      62170.036      87120        
    121300   121300         1144.7832      306.4221       10014          3062.5835      13076.583      62221.487      87120        
    121400   121400         1145.6717      304.52204      10011.763      3043.5931      13055.356      62171.595      87120        
    121500   121500         1146.5796      301.97551      9979.8847      3018.1414      12998.026      62113.061      87120        
    121600   121600         1147.4747      294.34206      10048.278      2941.8476      12990.126      62274.54       87120        
    121700   121700         1148.3835      306.63489      10023.16       3064.7103      13087.871      62218.987      87120        
    121800   121800         1149.2788      309.87912      9990.7127      3097.1353      13087.848      62106.339      87120        
    121900   121900         1150.1817      305.82305      9935.7409      3056.5962      12992.337      61900.152      87120        
    122000   122000         1151.066       294.21475      9971.8022      2940.5752      12912.377      61963.802      87120        
    122100   122100         1151.9422      301.58306      9914.5796      3014.2189      12928.799      61808.38       87120        
    122200   122200         1152.8219      301.73956      9948.956       3015.7831      12964.739      61938.556      87120        
    122300   122300         1153.7017      301.94661      9968.1674      3017.8526      12986.02       61984.508      87120        
    122400   122400         1154.5793      299.31423      9920.3232      2991.5428      12911.866      61849.804      87120        
    122500   122500         1155.4699      294.18419      9903.828       2940.2698      12844.098      61773.993      87120        
    122600   122600         1156.35        294.37745      9967.5897      2942.2014      12909.791      61900.008      87120        
    122700   122700         1157.2494      307.11573      9916.9039      3069.5161      12986.42       61933.196      87120        
    122800   122800         1158.1448      302.32038      9966.66        3021.5883      12988.248      62112.922      87120        
    122900   122900         1159.0576      300.36886      9951.1728      3002.0835      12953.256      61950.683      87120        
    123000   123000         1159.9673      295.4339       9963.9928      2952.7602      12916.753      62072.953      87120        
    123100   123100         1160.8508      298.95879      9946.9573      2987.9903      12934.948      61956.377      87120        
    123200   123200         1161.7512      297.37216      9995.4227      2972.1325      12967.555      62078.884      87120        
    123300   123300         1162.6559      302.76623      9956.4549      3026.0443      12982.499      62073.529      87120        
    123400   123400         1163.5625      296.0581       10028.754      2958.9989      12987.753      62243.185      87120        
    123500   123500         1164.4598      298.90733      10013.366      2987.476       13000.842      62193.4        87120        
    123600   123600         1165.3601      306.18949      10017.999      3060.2587      13078.257      62290.574      87120        
    123700   123700         1166.2726      309.93226      10019.911      3097.6663      13117.577      62282.801      87120        
    123800   123800         1167.1867      301.94326      9982.805       3017.819       13000.624      62145.827      87120        
    123900   123900         1168.0955      292.36657      10032.852      2922.1033      12954.955      62331.58       87120        
    124000   124000         1168.9903      297.77578      10005.542      2976.1665      12981.709      62131.906      87120        
    124100   124100         1169.8742      306.37841      9956.1874      3062.1468      13018.334      61980.194      87120        
    124200   124200         1170.7774      298.32288      9979.7946      2981.6346      12961.429      62125.215      87120        
    124300   124300         1171.6651      289.89462      9960.9288      2897.3971      12858.326      61937.637      87120        
    124400   124400         1172.5653      294.47286      9939.0292      2943.155       12882.184      61875.537      87120        
    124500   124500         1173.4654      300.23099      9936.4361      3000.7055      12937.142      61893.297      87120        
    124600   124600         1174.3525      302.09119      9935.1855      3019.2976      12954.483      61780.662      87120        
    124700   124700         1175.2493      299.10149      9926.9322      2989.4165      12916.349      61778.55       87120        
    124800   124800         1176.149       293.82669      9933.8777      2936.6967      12870.574      61829.958      87120        
    124900   124900         1177.034       303.17654      9905.3508      3030.1452      12935.496      61692.851      87120        
    125000   125000         1177.9386      305.51726      9970.1092      3053.54        13023.649      62011.776      87120        
    125100   125100         1178.8335      296.67703      9975.1635      2965.1849      12940.348      62018.215      87120        
    125200   125200         1179.7292      298.58172      9902.8585      2984.2216      12887.08       61754.255      87120        
    125300   125300         1180.6293      302.41223      9916.4569      3022.5062      12938.963      61820.475      87120        
    125400   125400         1181.5164      303.58842      9954.2257      3034.2618      12988.488      61974.506      87120        
    125500   125500         1182.4231      298.88552      9966.7071      2987.258       12953.965      62030.64       87120        
    125600   125600         1183.3347      289.19225      9958.043       2890.377       12848.42       62002.188      87120        
    125700   125700         1184.2368      294.24241      9963.9241      2940.8517      12904.776      62093.933      87120        
    125800   125800         1185.151       301.02311      9943.8283      3008.6224      12952.451      61958.52       87120        
    125900   125900         1186.05        303.71149      9935.6661      3035.4919      12971.158      61915.514      87120        
    126000   126000         1186.9643      301.51317      9967.9453      3013.5204      12981.466      62075.337      87120        
    126100   126100         1187.8647      295.89444      9946.6096      2957.3631      12903.973      61985.468      87120        
    126200   126200         1188.7742      295.88001      9922.172       2957.219       12879.391      61927.741      87120        
    126300   126300         1189.687       295.44268      9993.367       2952.848       12946.215      62086.444      87120        
    126400   126400         1190.5968      298.37345      9982.423       2982.14        12964.563      62044.281      87120        
    126500   126500         1191.4975      303.75332      9906.0048      3035.91        12941.915      61849.197      87120        
    126600   126600         1192.413       297.39566      9905.4415      2972.3674      12877.809      61730.745      87120        
    126700   126700         1193.3178      291.07941      9953.6541      2909.2386      12862.893      61962.222      87120        
    126800   126800         1194.2274      306.47935      9892.5201      3063.1557      12955.676      61787.629      87120        
    126900   126900         1195.135       307.64431      9919.2464      3074.7991      12994.045      61797.787      87120        
    127000   127000         1196.0559      301.14516      9921.2158      3009.8423      12931.058      61885.69       87120        
    127100   127100         1196.9512      294.57145      9902.1526      2944.1403      12846.293      61762.06       87120        
    127200   127200         1197.8564      295.98329      9921.9694      2958.2512      12880.221      61761.076      87120        
    127300   127300         1198.7475      303.27611      9934.0731      3031.1405      12965.214      61933.737      87120        
    127400   127400         1199.6489      304.73402      9953.6122      3045.7117      12999.324      61997.46       87120        
    127500   127500         1200.5385      299.45368      9957.1934      2992.9365      12950.13       61946.466      87120        
    127600   127600         1201.4439      290.57191      9941.7932      2904.1663      12845.959      61899.176      87120        
    127700   127700         1202.3342      295.65293      9910.97        2954.9494      12865.919      61809.311      87120        
    127800   127800         1203.2491      295.03222      9981.9313      2948.7456      12930.677      62083.379      87120        
    127900   127900         1204.1722      301.1328       10001.371      3009.7188      13011.09       62185.731      87120        
    128000   128000         1205.076       304.71856      9968.1872      3045.5572      13013.744      62141.399      87120        
    128100   128100         1205.9661      299.36747      9921.7151      2992.0749      12913.79       61927.524      87120        
    128200   128200         1206.8718      297.38117      9920.817       2972.2225      12893.04       61921.991      87120        
    128300   128300         1207.782       301.17256      9929.7825      3010.1161      12939.899      62018.743      87120        
    128400   128400         1208.68        303.05308      9948.1286      3028.9113      12977.04       62026.132      87120        
    128500   128500         1209.597       301.81034      9942.7091      3016.4906      12959.2        61979.171      87120        
    128600   128600         1210.5014      297.40447      9906.7358      2972.4554      12879.191      61832.961      87120        
    128700   128700         1211.3988      291.2686       9913.081       2911.1295      12824.21       61818.889      87120        
    128800   128800         1212.3054      302.71807      9902.8033      3025.563       12928.366      61873.944      87120        
    128900   128900         1213.2116      298.15695      9990.6764      2979.9762      12970.653      62156.411      87120        
    129000   129000         1214.1228      302.62662      9966.7595      3024.6489      12991.408      62054.864      87120        
    129100   129100         1215.0246      307.11418      9937.0073      3069.5006      13006.508      61957.171      87120        
    129200   129200         1215.9293      304.07637      9894.7111      3039.1388      12933.85       61750.568      87120        
    129300   129300         1216.8291      289.5105       9963.7343      2893.5578      12857.292      61944.386      87120        
    129400   129400         1217.716       302.1969       9914.5028      3020.3541      12934.857      61801.212      87120        
    129500   129500         1218.6307      300.96159      9986.1364      3008.0076      12994.144      62017.295      87120        
    129600   129600         1219.5338      302.21062      9992.0195      3020.4912      13012.511      62066.245      87120        
    129700   129700         1220.4368      302.37121      9966.5947      3022.0963      12988.691      62017.316      87120        
    129800   129800         1221.34        293.01332      9962.9085      2928.5674      12891.476      61942.525      87120        
    129900   129900         1222.2424      292.30327      9950.0882      2921.4707      12871.559      61903.454      87120        
    130000   130000         1223.1321      302.21907      9952.5103      3020.5756      12973.086      61930.486      87120        
    130100   130100         1224.0461      302.58299      9965.4992      3024.2129      12989.712      61951.079      87120        
    130200   130200         1224.9492      300.82621      9952.2303      3006.6545      12958.885      61974.801      87120        
    130300   130300         1225.8383      295.30214      9943.9215      2951.4433      12895.365      61926.893      87120        
    130400   130400         1226.7435      296.98862      9918.6152      2968.2991      12886.914      61810.034      87120        
    130500   130500         1227.6328      307.4402       9946.5834      3072.7591      13019.342      62014.357      87120        
    130600   130600         1228.5471      302.81059      9984.7578      3026.4878      13011.246      62077.886      87120        
    130700   130700         1229.4638      297.65408      9983.5623      2974.9502      12958.512      62121.121      87120        
    130800   130800         1230.3732      297.10447      9938.5849      2969.457       12908.042      61928.256      87120        
    130900   130900         1231.2796      295.59103      9979.6544      2954.3307      12933.985      62046.222      87120        
    131000   131000         1232.1884      306.33042      9968.4498      3061.6672      13030.117      62059.041      87120        
    131100   131100         1233.0854      305.28079      9964.2754      3051.1765      13015.452      62015.279      87120        
    131200   131200         1233.9997      300.24253      9946.9987      3000.8209      12947.82       61946.496      87120        
    131300   131300         1234.8908      299.77001      9900.4555      2996.0981      12896.554      61798.746      87120        
    131400   131400         1235.8118      292.21023      9997.503       2920.5408      12918.044      62087.246      87120        
    131500   131500         1236.715       305.26615      9930.1218      3051.0302      12981.152      61906.712      87120        
    131600   131600         1237.6185      298.36561      9975.48        2982.0617      12957.542      62029.232      87120        
    131700   131700         1238.5316      300.50621      9936.1823      3003.4562      12939.639      61879.35       87120        
    131800   131800         1239.4318      299.28819      9924.3299      2991.2826      12915.612      61874.323      87120        
    131900   131900         1240.3372      295.81137      9962.9204      2956.5329      12919.453      61945.085      87120        
    132000   132000         1241.2573      301.66129      9920.4267      3015.0008      12935.428      61768.534      87120        
    132100   132100         1242.1618      302.15114      9892.1464      3019.8967      12912.043      61725.87       87120        
    132200   132200         1243.0542      302.1614       9897.9415      3019.9993      12917.941      61704.827      87120        
    132300   132300         1243.9563      306.99248      9894.0836      3068.2842      12962.368      61711.627      87120        
    132400   132400         1244.863       299.46494      9924.6596      2993.0491      12917.709      61765.191      87120        
    132500   132500         1245.7681      295.87723      9898.8969      2957.1912      12856.088      61683.879      87120        
    132600   132600         1246.6813      299.66175      9900.2724      2995.0162      12895.289      61697.422      87120        
    132700   132700         1247.5927      300.53272      9935.5857      3003.7212      12939.307      61904.414      87120        
    132800   132800         1248.4937      309.73884      9897.1722      3095.7332      12992.905      61703.307      87120        
    132900   132900         1249.4069      306.98252      9937.2269      3068.1847      13005.412      61887.337      87120        
    133000   133000         1250.3223      297.90737      9948.6319      2977.4817      12926.114      61945.226      87120        
    133100   133100         1251.2145      293.18392      9971.5969      2930.2724      12901.869      61896.382      87120        
    133200   133200         1252.1133      301.59788      9950.7051      3014.3671      12965.072      61966.067      87120        
    133300   133300         1253.0302      306.43154      9962.6855      3062.6779      13025.363      62025.158      87120        
    133400   133400         1253.9308      301.16178      9970.3074      3010.0084      12980.316      61982.845      87120        
    133500   133500         1254.8436      297.19818      9913.1313      2970.3936      12883.525      61787.007      87120        
    133600   133600         1255.7282      283.39507      9929.8255      2832.4363      12762.262      61779.704      87120        
    133700   133700         1256.6117      294.58962      9879.6323      2944.3219      12823.954      61644.856      87120        
    133800   133800         1257.5108      300.15126      9895.5089      2999.9086      12895.418      61834.078      87120        
    133900   133900         1258.4095      297.80505      9974.1046      2976.4591      12950.564      61967.306      87120        
    134000   134000         1259.3115      306.25568      9909.1564      3060.9202      12970.077      61780.355      87120        
    134100   134100         1260.1923      297.48747      9908.0285      2973.2849      12881.313      61747.15       87120        
    134200   134200         1261.0895      293.03389      9914.4628      2928.773       12843.236      61721.052      87120        
    134300   134300         1261.9759      296.97943      9921.1576      2968.2073      12889.365      61773.13       87120        
    134400   134400         1262.8705      299.18248      9951.6933      2990.226       12941.919      61945.06       87120        
    134500   134500         1263.7514      299.70206      9957.7912      2995.4191      12953.21       61948.876      87120        
    134600   134600         1264.6519      302.10017      9929.6461      3019.3873      12949.033      61918.736      87120        
    134700   134700         1265.5349      290.49115      9959.359       2903.3592      12862.718      62017.37       87120        
    134800   134800         1266.4204      293.9888       9920.7539      2938.3169      12859.071      61804.534      87120        
    134900   134900         1267.3211      297.34753      9979.6339      2971.8863      12951.52       62035.837      87120        
    135000   135000         1268.2354      300.6131       9972.0057      3004.5245      12976.53       61973.809      87120        
    135100   135100         1269.1202      304.79167      9895.6705      3046.2879      12941.958      61715.962      87120        
    135200   135200         1270.0191      296.43675      9873.909       2962.7834      12836.692      61649.769      87120        
    135300   135300         1270.9204      296.76822      9890.9         2966.0963      12856.996      61712.43       87120        
    135400   135400         1271.8149      302.33117      9883.0069      3021.696       12904.703      61688.13       87120        
    135500   135500         1272.703       298.50795      9925.7783      2983.4843      12909.263      61860.223      87120        
    135600   135600         1273.5986      298.98326      9923.0231      2988.2348      12911.258      61767.764      87120        
    135700   135700         1274.4939      301.77576      9914.83        3016.1449      12930.975      61762.053      87120        
    135800   135800         1275.39        304.87201      9959.7955      3047.0909      13006.886      61959.71       87120        
    135900   135900         1276.2866      308.91957      9970.4954      3087.5448      13058.04       61956.36       87120        
    136000   136000         1277.1811      300.96283      9951.6128      3008.02        12959.633      61942.953      87120        
    136100   136100         1278.0705      294.94556      9953.8197      2947.8794      12901.699      61924.414      87120        
    136200   136200         1278.9666      299.40368      9941.3062      2992.4368      12933.743      61878.683      87120        
    136300   136300         1279.8605      305.75422      9947.011       3055.9082      13002.919      61937.782      87120        
    136400   136400         1280.7564      303.46299      9931.3297      3033.0082      12964.338      61815.285      87120        
    136500   136500         1281.6728      298.65257      9902.4385      2984.9298      12887.368      61722.732      87120        
    136600   136600         1282.5659      297.24256      9953.7358      2970.8372      12924.573      61925.619      87120        
    136700   136700         1283.4814      300.20849      9953.5062      3000.4806      12953.987      61851.744      87120        
    136800   136800         1284.3821      300.63602      9960.9274      3004.7536      12965.681      61898.422      87120        
    136900   136900         1285.2847      303.3857       9921.8444      3032.2357      12954.08       61781.974      87120        
    137000   137000         1286.1941      291.7026       9960.012       2915.4671      12875.479      61910.846      87120        
    137100   137100         1287.0819      298.55487      9939.1888      2983.9533      12923.142      61889.405      87120        
    137200   137200         1287.9843      300.99795      9973.3337      3008.371       12981.705      61981.383      87120        
    137300   137300         1288.8854      304.359        9946.9196      3041.9635      12988.883      61894.057      87120        
    137400   137400         1289.7702      296.11075      9972.0226      2959.5251      12931.548      61966.486      87120        
    137500   137500         1290.6665      297.36639      9939.6001      2972.0748      12911.675      61823.211      87120        
    137600   137600         1291.5731      299.88032      9956.1505      2997.2007      12953.351      61884.089      87120        
    137700   137700         1292.4676      298.75204      9977.1927      2985.9239      12963.117      61892.345      87120        
    137800   137800         1293.3736      303.43866      9933.5658      3032.7651      12966.331      61854.22       87120        
    137900   137900         1294.2783      294.34989      9936.2231      2941.9259      12878.149      61787.027      87120        
    138000   138000         1295.162       292.43079      9930.1903      2922.7452      12852.935      61749.952      87120        
    138100   138100         1296.0533      301.67637      9941.7863      3015.1516      12956.938      61816.964      87120        
    138200   138200         1296.9362      305.63023      9924.0808      3054.669       12978.75       61739.525      87120        
    138300   138300         1297.8353      300.61138      9932.0283      3004.5074      12936.536      61778.494      87120        
    138400   138400         1298.7199      294.26602      9974.2456      2941.0877      12915.333      61962.692      87120        
    138500   138500         1299.6086      296.6395       9987.4811      2964.8098      12952.291      62007.786      87120        
    138600   138600         1300.5153      306.79193      10000.2        3066.2799      13066.48       62088.141      87120        
    138700   138700         1301.4053      307.80258      9986.7337      3076.3809      13063.115      62029.89       87120        
    138800   138800         1302.2923      303.66951      9941.7653      3035.0723      12976.838      61915.221      87120        
    138900   138900         1303.1793      295.47782      10011.197      2953.1992      12964.396      62157.425      87120        
    139000   139000         1304.0884      299.88457      9991.614       2997.2431      12988.857      62050.032      87120        
    139100   139100         1304.9835      301.92393      10005.279      3017.6258      13022.905      62145.616      87120        
    139200   139200         1305.8658      306.21089      9985.5056      3060.4725      13045.978      62054.401      87120        
    139300   139300         1306.7595      299.23879      9949.1355      2990.7888      12939.924      61814.173      87120        
    139400   139400         1307.6553      293.39253      9943.5063      2932.3575      12875.864      61865.792      87120        
    139500   139500         1308.5486      295.08452      9967.0988      2949.2683      12916.367      61910.922      87120        
    139600   139600         1309.4418      301.95855      9936.2204      3017.9719      12954.192      61796.563      87120        
    139700   139700         1310.3337      297.82245      9951.9919      2976.633       12928.625      61811.045      87120        
    139800   139800         1311.2269      298.83916      9926.9933      2986.7946      12913.788      61799.467      87120        
    139900   139900         1312.1196      297.90941      9932.3298      2977.5021      12909.832      61768.822      87120        
    140000   140000         1313.036       305.20482      9928.0236      3050.4172      12978.441      61831.867      87120        
    140100   140100         1313.9244      311.91094      9881.1476      3117.4426      12998.59       61727.835      87120        
    140200   140200         1314.8092      298.0379       9906.8196      2978.7863      12885.606      61661.27       87120        
    140300   140300         1315.7068      295.09763      9920.3233      2949.3993      12869.723      61753.581      87120        
    140400   140400         1316.5976      298.9843       9953.3806      2988.2453      12941.626      61904.382      87120        
    140500   140500         1317.493       304.96841      9945.7954      3048.0543      12993.85       61830.848      87120        
    140600   140600         1318.3917      299.08242      9910.2851      2989.226       12899.511      61791.038      87120        
    140700   140700         1319.29        294.7804       9925.634       2946.2287      12871.863      61821.728      87120        
    140800   140800         1320.1881      299.92166      9948.3658      2997.6139      12945.98       61855.384      87120        
    140900   140900         1321.0705      301.52285      10015.589      3013.6172      13029.206      62155.531      87120        
    141000   141000         1321.9694      303.56315      9983.7049      3034.0093      13017.714      62093.444      87120        
    141100   141100         1322.8664      298.36225      9960.8293      2982.0281      12942.857      61981.176      87120        
    141200   141200         1323.7514      296.05663      9965.9421      2958.9842      12924.926      62044.317      87120        
    141300   141300         1324.6488      300.17188      9953.1023      3000.1147      12953.217      61957.776      87120        
    141400   141400         1325.5473      305.20262      9903.1585      3050.3952      12953.554      61805.78       87120        
    141500   141500         1326.425       292.37244      9943.5867      2922.162       12865.749      61874.201      87120        
    141600   141600         1327.3261      290.57574      9932.3515      2904.2046      12836.556      61874.343      87120        
    141700   141700         1328.2091      299.75462      9947.659       2995.9444      12943.603      61892.246      87120        
    141800   141800         1329.0978      300.77212      9946.2026      3006.1139      12952.316      61935.761      87120        
    141900   141900         1330.0002      302.63106      9848.9299      3024.6934      12873.623      61518.171      87120        
    142000   142000         1330.8825      296.27403      9882.2853      2961.1571      12843.442      61661.443      87120        
    142100   142100         1331.7705      297.50796      9917.9196      2973.4897      12891.409      61802.11       87120        
    142200   142200         1332.6516      302.93649      9949.8592      3027.746       12977.605      61879.082      87120        
    142300   142300         1333.5471      300.94997      9957.9667      3007.8915      12965.858      61923.4        87120        
    142400   142400         1334.4415      297.35712      9938.7285      2971.9822      12910.711      61866.803      87120        
    142500   142500         1335.3295      299.26193      9891.55        2991.0201      12882.57       61630.699      87120        
    142600   142600         1336.2173      293.57961      9952.6828      2934.2272      12886.91       61897.256      87120        
    142700   142700         1337.1099      304.43874      9934.9133      3042.7605      12977.674      61839.479      87120        
    142800   142800         1338.0018      304.51705      9931.7058      3043.5432      12975.249      61744.648      87120        
    142900   142900         1338.8805      301.73454      9862.4569      3015.7329      12878.19       61588.315      87120        
    143000   143000         1339.7591      295.16464      9891.1364      2950.0691      12841.205      61606.958      87120        
    143100   143100         1340.6424      301.98007      9859.2014      3018.187       12877.388      61474.753      87120        
    143200   143200         1341.5341      302.5216       9871.9726      3023.5993      12895.572      61559.381      87120        
    143300   143300         1342.4195      301.19545      9905.4511      3010.345       12915.796      61724.017      87120        
    143400   143400         1343.3234      300.23702      9881.2091      3000.7657      12881.975      61637.059      87120        
    143500   143500         1344.2117      298.02627      9885.3227      2978.6701      12863.993      61713.896      87120        
    143600   143600         1345.1161      298.03374      9925.056       2978.7448      12903.801      61809.754      87120        
    143700   143700         1346.0202      306.25901      9932.2565      3060.9535      12993.21       61892.218      87120        
    143800   143800         1346.9044      305.82623      9928.8484      3056.628       12985.476      61899.106      87120        
    143900   143900         1347.814       296.28576      9918.7252      2961.2743      12879.999      61810.809      87120        
    144000   144000         1348.7044      296.24359      9947.114       2960.8528      12907.967      61840.988      87120        
    144100   144100         1349.5906      299.03734      9979.1977      2988.7754      12967.973      62071.927      87120        
    144200   144200         1350.4744      304.27095      9952.2015      3041.0835      12993.285      61997.803      87120        
    144300   144300         1351.3789      294.46735      9978.4201      2943.0999      12921.52       61932.097      87120        
    144400   144400         1352.2735      296.58614      9918.3176      2964.2765      12882.594      61788.609      87120        
    144500   144500         1353.1725      297.20415      9938.5749      2970.4533      12909.028      61846.442      87120        
    144600   144600         1354.0872      296.56943      10003.22       2964.1095      12967.33       62119.648      87120        
    144700   144700         1354.9758      309.44724      9901.6217      3092.8187      12994.44       61829.951      87120        
    144800   144800         1355.864       300.88952      9905.8094      3007.2872      12913.097      61783.514      87120        
    144900   144900         1356.7665      300.15921      9884.729       2999.9881      12884.717      61732.148      87120        
    145000   145000         1357.6604      300.90046      9888.7253      3007.3966      12896.122      61755.513      87120        
    145100   145100         1358.5387      298.57292      9915.9846      2984.1337      12900.118      61822.823      87120        
    145200   145200         1359.4372      302.25344      9914.2278      3020.9192      12935.147      61813.377      87120        
    145300   145300         1360.3192      308.24935      9978.8217      3080.8462      13059.668      62065.851      87120        
    145400   145400         1361.2143      308.31493      9931.0652      3081.5017      13012.567      61874.759      87120        
    145500   145500         1362.0993      304.78605      9866.2039      3046.2318      12912.436      61618.37       87120        
    145600   145600         1362.9938      294.62373      9943.6292      2944.6629      12888.292      61926.957      87120        
    145700   145700         1363.9023      300.8232       9927.0901      3006.6245      12933.715      61874.81       87120        
    145800   145800         1364.79        303.72282      9952.6745      3035.6051      12988.28       61964.457      87120        
    145900   145900         1365.6725      304.04888      9938.8841      3038.864       12977.748      61897.309      87120        
    146000   146000         1366.5682      294.29059      9895.9426      2941.3333      12837.276      61676.09       87120        
    146100   146100         1367.4541      294.17068      9874.832       2940.1348      12814.967      61611.827      87120        
    146200   146200         1368.3312      296.65083      9930.9976      2964.923       12895.921      61790.628      87120        
    146300   146300         1369.2025      300.79416      9930.4131      3006.3342      12936.747      61759.889      87120        
    146400   146400         1370.0732      300.65696      9919.9034      3004.963       12924.866      61728.887      87120        
    146500   146500         1370.9563      297.85182      9897.8765      2976.9265      12874.803      61643.64       87120        
    146600   146600         1371.8299      296.68552      9899.6793      2965.2698      12864.949      61649.198      87120        
    146700   146700         1372.7041      308.94793      9904.3964      3087.8283      12992.225      61719.107      87120        
    146800   146800         1373.5919      301.53164      9956.2004      3013.705       12969.905      61801.529      87120        
    146900   146900         1374.4859      301.03556      9915.6538      3008.7469      12924.401      61789.068      87120        
    147000   147000         1375.3788      300.88011      9903.0711      3007.1932      12910.264      61750.758      87120        
    147100   147100         1376.2494      292.92305      9950.6091      2927.6651      12878.274      61868.882      87120        
    147200   147200         1377.1359      297.41423      9924.6565      2972.5529      12897.209      61775.598      87120        
    147300   147300         1378.0099      305.72762      9952.1162      3055.6424      13007.759      61887.873      87120        
    147400   147400         1378.9004      300.07961      9951.9058      2999.1925      12951.098      61832.811      87120        
    147500   147500         1379.7901      298.7137       9897.7189      2985.5407      12883.26       61718.369      87120        
    147600   147600         1380.6695      299.20361      9884.4311      2990.4372      12874.868      61652.8        87120        
    147700   147700         1381.5651      298.08495      9924.9919      2979.2566      12904.248      61735.327      87120        
    147800   147800         1382.4426      308.61466      9883.1178      3084.4973      12967.615      61675.504      87120        
    147900   147900         1383.3317      300.00602      9920.7384      2998.457       12919.195      61758.696      87120        
    148000   148000         1384.2125      299.7658       9881.0498      2996.0561      12877.106      61559.612      87120        
    148100   148100         1385.0927      299.53144      9907.2482      2993.7137      12900.962      61692.032      87120        
    148200   148200         1385.976       303.07015      9889.1652      3029.0819      12918.247      61697.387      87120        
    148300   148300         1386.8537      298.85856      9894.418       2986.9885      12881.407      61585.694      87120        
    148400   148400         1387.7399      295.47594      9873.5022      2953.1804      12826.683      61594.51       87120        
    148500   148500         1388.6148      293.18503      9953.4846      2930.2836      12883.768      61889.105      87120        
    148600   148600         1389.5014      304.01569      9952.3821      3038.5323      12990.914      61874.961      87120        
    148700   148700         1390.3822      301.06518      9968.8058      3009.043       12977.849      61924.569      87120        
    148800   148800         1391.276       297.59789      9959.7877      2974.3886      12934.176      61921.616      87120        
    148900   148900         1392.1651      292.31925      9986.2949      2921.6304      12907.925      62002.233      87120        
    149000   149000         1393.0433      300.95587      9962.5505      3007.9504      12970.501      61954.411      87120        
    149100   149100         1393.9319      307.63062      9961.6251      3074.6623      13036.287      61972.455      87120        
    149200   149200         1394.8307      302.0747       9966.7827      3019.1328      12985.915      62048.951      87120        
    149300   149300         1395.7108      296.24032      9980.4559      2960.8202      12941.276      62010.224      87120        
    149400   149400         1396.596       300.63163      9940.0385      3004.7097      12944.748      61864.029      87120        
    149500   149500         1397.4847      298.24166      9977.6731      2980.8228      12958.496      62013.576      87120        
    149600   149600         1398.3721      308.19498      9964.4307      3080.3028      13044.733      62001.001      87120        
    149700   149700         1399.2563      305.60328      9963.2067      3054.3997      13017.606      61895.277      87120        
    149800   149800         1400.1431      302.69111      9896.2572      3025.2935      12921.551      61662.9        87120        
    149900   149900         1401.0129      299.66303      9891.9818      2995.029       12887.011      61653.903      87120        
    150000   150000         1401.9001      296.86628      9910.3598      2967.0763      12877.436      61650.347      87120        
    150100   150100         1402.774       302.89518      9904.6244      3027.3332      12931.958      61664.248      87120        
    150200   150200         1403.6572      307.85796      9882.8786      3076.9345      12959.813      61600.371      87120        
    150300   150300         1404.5368      296.48117      9875.8454      2963.2273      12839.073      61522.449      87120        
    150400   150400         1405.4197      297.09626      9857.9324      2969.375       12827.307      61521.596      87120        
    150500   150500         1406.3011      297.92223      9889.9731      2977.6302      12867.603      61587.954      87120        
    150600   150600         1407.185       305.91649      9868.905       3057.5302      12926.435      61598.92       87120        
    150700   150700         1408.0693      300.9708       9902.5715      3008.0997      12910.671      61706.273      87120        
    150800   150800         1408.9625      292.19699      9964.852       2920.4084      12885.26       61898.828      87120        
    150900   150900         1409.8615      301.02059      9965.9115      3008.5973      12974.509      61940.086      87120        
    151000   151000         1410.7391      305.53136      9990.5686      3053.6809      13044.249      62069.789      87120        
    151100   151100         1411.624       299.32276      9971.5838      2991.628       12963.212      62019.187      87120        
    151200   151200         1412.5103      292.11032      10012.331      2919.5421      12931.873      62125.403      87120        
    151300   151300         1413.3875      298.54392      10017.615      2983.8438      13001.459      62184.412      87120        
    151400   151400         1414.2673      296.64633      10057.544      2964.878       13022.422      62312.959      87120        
    151500   151500         1415.1672      299.52306      10032.652      2993.63        13026.282      62186.805      87120        
    151600   151600         1416.0529      302.71647      9967.5621      3025.547       12993.109      61978.221      87120        
    151700   151700         1416.932       299.70385      9941.6103      2995.4369      12937.047      61882.287      87120        
    151800   151800         1417.8113      301.52374      9908.1923      3013.626       12921.818      61643.677      87120        
    151900   151900         1418.684       295.39807      9942.8218      2952.4021      12895.224      61820.539      87120        
    152000   152000         1419.5573      302.06946      9837.8774      3019.0803      12856.958      61441.044      87120        
    152100   152100         1420.427       298.46658      9866.3556      2983.0709      12849.427      61498.108      87120        
    152200   152200         1421.3013      307.21993      9828.6313      3070.5576      12899.189      61376.417      87120        
    152300   152300         1422.1717      305.80954      9875.3118      3056.4612      12931.773      61573.033      87120        
    152400   152400         1423.0394      297.2396       9881.646       2970.8076      12852.454      61524.445      87120        
    152500   152500         1423.8931      290.87932      9912.5451      2907.2388      12819.784      61563.773      87120        
    152600   152600         1424.769       297.76698      9921.0368      2976.0785      12897.115      61749.939      87120        
    152700   152700         1425.644       305.50922      9914.9951      3053.4596      12968.455      61772.375      87120        
    152800   152800         1426.5182      297.83769      9968.6751      2976.7852      12945.46       61888.772      87120        
    152900   152900         1427.3968      294.2178       9959.9186      2940.6057      12900.524      61918.729      87120        
    153000   153000         1428.2731      286.5271       10018.556      2863.7398      12882.296      62069.769      87120        
    153100   153100         1429.1451      299.26828      10024.228      2991.0836      13015.312      62186.705      87120        
    153200   153200         1430.0271      304.96102      9984.5107      3047.9805      13032.491      62090.043      87120        
    153300   153300         1430.9007      298.80745      9973.456       2986.4777      12959.934      62036.631      87120        
    153400   153400         1431.7766      297.06639      9945.9168      2969.0764      12914.993      61973.159      87120        
    153500   153500         1432.6508      299.27935      9951.9114      2991.1942      12943.106      61915.859      87120        
    153600   153600         1433.5175      304.69031      9948.1482      3045.2749      12993.423      61887.209      87120        
    153700   153700         1434.4052      301.7434       9927.9449      3015.8215      12943.766      61807.8        87120        
    153800   153800         1435.2797      302.10149      9872.1932      3019.4005      12891.594      61563.993      87120        
    153900   153900         1436.1486      300.91878      9850.143       3007.5798      12857.723      61509.013      87120        
    154000   154000         1437.0204      297.32295      9875.8804      2971.6406      12847.521      61538.077      87120        
    154100   154100         1437.8839      305.36346      9878.0533      3052.0028      12930.056      61634.49       87120        
    154200   154200         1438.749       301.29352      9911.2626      3011.3251      12922.588      61667.661      87120        
    154300   154300         1439.6145      296.42077      9875.9072      2962.6237      12838.531      61557.082      87120        
    154400   154400         1440.4802      293.20868      9838.7895      2930.52        12769.309      61364.4        87120        
    154500   154500         1441.3453      300.20838      9874.3261      3000.4795      12874.806      61496.624      87120        
    154600   154600         1442.2108      303.28261      9903.3323      3031.2054      12934.538      61718.592      87120        
    154700   154700         1443.0889      300.49717      9901.2277      3003.3659      12904.594      61678.181      87120        
    154800   154800         1443.9569      295.9538       9902.8155      2957.9565      12860.772      61635.606      87120        
    154900   154900         1444.8285      300.22879      9866.4241      3000.6835      12867.108      61534.544      87120        
    155000   155000         1445.7188      298.22519      9985.7066      2980.6582      12966.365      61941.378      87120        
    155100   155100         1446.5864      310.85429      9933.1606      3106.8817      13040.042      61838.82       87120        
    155200   155200         1447.4554      301.429        9941.3514      3012.6792      12954.031      61868.578      87120        
    155300   155300         1448.316       298.66351      9927.2393      2985.0391      12912.278      61791.035      87120        
    155400   155400         1449.1885      297.58543      9906.7907      2974.264       12881.055      61683.131      87120        
    155500   155500         1450.0632      298.03649      9935.9127      2978.7722      12914.685      61839.537      87120        
    155600   155600         1450.9459      313.02925      9884.5753      3128.6197      13013.195      61743.951      87120        
    155700   155700         1451.8287      300.98711      9951.6695      3008.2626      12959.932      61835.796      87120        
    155800   155800         1452.7125      299.9803       9894.4503      2998.2         12892.65       61634.451      87120        
    155900   155900         1453.6086      299.27553      9875.0437      2991.156       12866.2        61577.356      87120        
    156000   156000         1454.4848      302.65651      9851.0217      3024.9478      12875.969      61525.721      87120        
    156100   156100         1455.3605      301.01739      9887.7463      3008.5653      12896.312      61649.207      87120        
    156200   156200         1456.2207      306.18272      9880.0086      3060.1909      12940.2        61600.27       87120        
    156300   156300         1457.0876      298.39645      9918.3822      2982.3699      12900.752      61710.498      87120        
    156400   156400         1457.9594      297.17861      9868.4639      2970.198       12838.662      61572.845      87120        
    156500   156500         1458.8448      294.93566      9934.6076      2947.7805      12882.388      61775.08       87120        
    156600   156600         1459.7055      298.87692      10005.46       2987.172       12992.632      62102.49       87120        
    156700   156700         1460.5736      301.36524      9970.805       3012.0419      12982.847      61913.857      87120        
    156800   156800         1461.4399      299.18447      9971.083       2990.2459      12961.329      61955.663      87120        
    156900   156900         1462.3096      293.51964      9969.7334      2933.6279      12903.361      61829.577      87120        
    157000   157000         1463.1788      295.44753      9943.4194      2952.8964      12896.316      61836.166      87120        
    157100   157100         1464.0506      300.78432      9943.5125      3006.2358      12949.748      61821.805      87120        
    157200   157200         1464.9258      305.85985      9954.6555      3056.964       13011.62       61853.807      87120        
    157300   157300         1465.8013      301.2753       9918.1225      3011.143       12929.265      61707.913      87120        
    157400   157400         1466.6694      300.0609       9854.7675      2999.0055      12853.773      61517.269      87120        
    157500   157500         1467.5322      300.71526      9864.6346      3005.5456      12870.18       61501.067      87120        
    157600   157600         1468.4172      300.49164      9907.6116      3003.3106      12910.922      61678.522      87120        
    157700   157700         1469.284       300.67921      9907.3134      3005.1853      12912.499      61701.024      87120        
    157800   157800         1470.1495      296.7171       9894.9613      2965.5853      12860.547      61596.94       87120        
    157900   157900         1471.0283      290.89591      9940.7243      2907.4046      12848.129      61820.799      87120        
    158000   158000         1471.9054      300.92781      9932.0145      3007.67        12939.684      61785.847      87120        
    158100   158100         1472.7626      305.16693      9906.4718      3050.0385      12956.51       61679.938      87120        
    158200   158200         1473.6354      295.89015      9938.2453      2957.3203      12895.566      61791.074      87120        
    158300   158300         1474.5057      293.7214       9907.1895      2935.6444      12842.834      61639.083      87120        
    158400   158400         1475.3633      301.02533      9903.395       3008.6447      12912.04       61716.527      87120        
    158500   158500         1476.2345      310.0093       9917.7981      3098.4364      13016.234      61745.045      87120        
    158600   158600         1477.1081      305.13416      9909.1414      3049.7109      12958.852      61717.032      87120        
    158700   158700         1477.9756      296.93249      9937.2703      2967.7382      12905.008      61778.801      87120        
    158800   158800         1478.8443      297.56729      9935.6779      2974.0828      12909.761      61724.62       87120        
    158900   158900         1479.7188      302.06174      9937.8585      3019.0032      12956.862      61819.574      87120        
    159000   159000         1480.5967      305.02616      9969.4928      3048.6315      13018.124      61899.866      87120        
    159100   159100         1481.4763      304.78321      9951.291       3046.2034      12997.494      61847.032      87120        
    159200   159200         1482.3452      298.76881      9899.3118      2986.0915      12885.403      61698.014      87120        
    159300   159300         1483.1997      298.67579      9893.3199      2985.1619      12878.482      61689.042      87120        
    159400   159400         1484.0662      300.39499      9922.978       3002.3446      12925.323      61770.808      87120        
    159500   159500         1484.9302      299.72025      9998.9484      2995.6008      12994.549      62051.684      87120        
    159600   159600         1485.8045      308.53454      9938.3566      3083.6966      13022.053      61817.523      87120        
    159700   159700         1486.6648      299.40181      9932.9113      2992.4181      12925.329      61727.677      87120        
    159800   159800         1487.5325      294.65119      9925.6183      2944.9373      12870.556      61772.069      87120        
    159900   159900         1488.4004      291.57349      9984.0101      2914.1767      12898.187      61950.401      87120        
    160000   160000         1489.2831      307.32679      9910.8974      3071.6256      12982.523      61700.785      87120        
    160100   160100         1490.1434      301.93666      9922.7207      3017.7531      12940.474      61798.944      87120        
    160200   160200         1491.0084      299.87347      9892.594       2997.1322      12889.726      61627.903      87120        
    160300   160300         1491.8882      297.20616      9853.5576      2970.4734      12824.031      61460.502      87120        
    160400   160400         1492.7656      293.50141      9811.8861      2933.4456      12745.332      61291.372      87120        
    160500   160500         1493.6311      295.37327      9865.4099      2952.1542      12817.564      61480.537      87120        
    160600   160600         1494.5125      304.4211       9873.0224      3042.5842      12915.607      61560.552      87120        
    160700   160700         1495.3756      305.64505      9863.7462      3054.8172      12918.563      61542.486      87120        
    160800   160800         1496.2554      295.10001      9903.5004      2949.4231      12852.924      61608.074      87120        
    160900   160900         1497.1266      304.07916      9826.0839      3039.1666      12865.251      61382.144      87120        
    161000   161000         1497.9986      303.00107      9893.7963      3028.3915      12922.188      61609.44       87120        
    161100   161100         1498.8503      308.2414       9918.6652      3080.7668      12999.432      61759.315      87120        
    161200   161200         1499.7091      303.45889      9919.0279      3032.9673      12951.995      61724.369      87120        
    161300   161300         1500.5894      297.59396      9905.8672      2974.3493      12880.217      61603.724      87120        
    161400   161400         1501.4456      299.31615      9887.6748      2991.562       12879.237      61545.361      87120        
    161500   161500         1502.3144      297.43916      9922.5552      2972.8021      12895.357      61672.838      87120        
    161600   161600         1503.1823      306.53834      9910.5269      3063.7453      12974.272      61692.121      87120        
    161700   161700         1504.0406      310.49904      9920.6313      3103.3311      13023.962      61760.58       87120        
    161800   161800         1504.9186      302.28609      9909.4003      3021.2455      12930.646      61764.311      87120        
    161900   161900         1505.7967      299.8984       9894.6612      2997.3814      12892.043      61724.628      87120        
    162000   162000         1506.667       300.09359      9892.8407      2999.3323      12892.173      61615.527      87120        
    162100   162100         1507.5306      297.14883      9942.716       2969.9003      12912.616      61818.793      87120        
    162200   162200         1508.3869      305.55365      9889.033       3053.9037      12942.937      61612.637      87120        
    162300   162300         1509.2516      297.21915      9926.7753      2970.6031      12897.378      61660.847      87120        
    162400   162400         1510.1183      295.02073      9871.0491      2948.6307      12819.68       61484.077      87120        
    162500   162500         1510.9911      293.14316      9922.1837      2929.8651      12852.049      61637.568      87120        
    162600   162600         1511.8616      301.62154      9918.0815      3014.6036      12932.685      61686.659      87120        
    162700   162700         1512.7294      303.13894      9904.5339      3029.7694      12934.303      61734.066      87120        
    162800   162800         1513.5956      299.93141      9920.9453      2997.7113      12918.657      61685.642      87120        
    162900   162900         1514.4681      295.02286      9930.6778      2948.652       12879.33       61692.488      87120        
    163000   163000         1515.3283      296.17833      9943.7216      2960.2006      12903.922      61781.992      87120        
    163100   163100         1516.1932      302.44234      10017.778      3022.8072      13040.586      62031.73       87120        
    163200   163200         1517.0598      305.78955      9992.6866      3056.2613      13048.948      62046.717      87120        
    163300   163300         1517.9346      300.23308      9956.404       3000.7264      12957.13       61862.892      87120        
    163400   163400         1518.8029      297.37084      9916.9296      2972.1193      12889.049      61659.169      87120        
    163500   163500         1519.6739      294.99585      9941.9835      2948.382       12890.366      61797.362      87120        
    163600   163600         1520.5565      301.54484      9947.1747      3013.8369      12961.012      61883.201      87120        
    163700   163700         1521.4269      305.93158      9922.1317      3057.6809      12979.813      61729.142      87120        
    163800   163800         1522.3034      293.0007       9954.4965      2928.4412      12882.938      61857.41       87120        
    163900   163900         1523.1796      294.40642      9896.2772      2942.4909      12838.768      61653.823      87120        
    164000   164000         1524.0398      297.30789      9901.9515      2971.4901      12873.442      61579.408      87120        
    164100   164100         1524.9032      299.81492      9936.7         2996.547       12933.247      61717.234      87120        
    164200   164200         1525.7562      303.33997      9917.3617      3031.7787      12949.14       61650.12       87120        
    164300   164300         1526.6357      294.60912      9930.4315      2944.5168      12874.948      61749.461      87120        
    164400   164400         1527.5219      298.76109      9889.9385      2986.0143      12875.953      61659.595      87120        
    164500   164500         1528.395       298.79369      9919.6461      2986.3402      12905.986      61798.09       87120        
    164600   164600         1529.2746      303.46459      9908.64        3033.0243      12941.664      61735.413      87120        
    164700   164700         1530.1451      303.57901      9885.5886      3034.1678      12919.756      61609.261      87120        
    164800   164800         1531.0064      302.77809      9855.4467      3026.1629      12881.61       61446.013      87120        
    164900   164900         1531.8836      297.91782      9911.5763      2977.5862      12889.162      61655.753      87120        
    165000   165000         1532.761       296.25786      9958.7913      2960.9954      12919.787      61909.642      87120        
    165100   165100         1533.6296      302.30649      9914.2261      3021.4494      12935.675      61695.579      87120        
    165200   165200         1534.4987      301.54926      9941.3543      3013.8811      12955.235      61825.052      87120        
    165300   165300         1535.3642      301.38006      9917.1453      3012.1901      12929.335      61739.43       87120        
    165400   165400         1536.2344      298.30981      9876.2638      2981.504       12857.768      61592.083      87120        
    165500   165500         1537.0972      296.74479      9911.3178      2965.8622      12877.18       61717.074      87120        
    165600   165600         1537.9764      302.95347      9958.556       3027.9158      12986.472      61974.135      87120        
    165700   165700         1538.8435      301.78891      9988.3485      3016.2763      13004.625      62078.383      87120        
    165800   165800         1539.7231      299.49053      9963.4864      2993.3048      12956.791      61918.95       87120        
    165900   165900         1540.6029      297.28882      9947.7367      2971.2996      12919.036      61898.622      87120        
    166000   166000         1541.4842      294.17944      9968.0515      2940.2224      12908.274      61935.368      87120        
    166100   166100         1542.3527      308.54756      9938.3224      3083.8267      13022.149      61851.473      87120        
    166200   166200         1543.2263      305.07974      9995.6345      3049.1671      13044.802      62047.469      87120        
    166300   166300         1544.1023      302.69973      9949.7428      3025.3797      12975.122      61886.677      87120        
    166400   166400         1544.9637      297.19691      9954.6025      2970.3809      12924.983      61925.75       87120        
    166500   166500         1545.8307      299.4755       9940.5797      2993.1546      12933.734      61923.63       87120        
    166600   166600         1546.6858      302.25178      9928.6812      3020.9026      12949.584      61731.963      87120        
    166700   166700         1547.543       303.92749      9914.2079      3037.6508      12951.859      61709.575      87120        
    166800   166800         1548.3999      301.42284      9924.0362      3012.6176      12936.654      61785.907      87120        
    166900   166900         1549.2601      296.10215      9921.1387      2959.4392      12880.578      61689.73       87120        
    167000   167000         1550.1204      296.29646      9901.8745      2961.3812      12863.256      61644.506      87120        
    167100   167100         1550.9846      301.86009      9903.6047      3016.9878      12920.593      61680.006      87120        
    167200   167200         1551.8316      307.69431      9879.7522      3075.2988      12955.051      61535.19       87120        
    167300   167300         1552.6795      296.70576      9920.4313      2965.4721      12885.903      61735.194      87120        
    167400   167400         1553.543       295.1104       9892.5105      2949.527       12842.037      61619.608      87120        
    167500   167500         1554.3939      295.93357      9906.6146      2957.7543      12864.369      61614.894      87120        
    167600   167600         1555.2593      300.96601      9922.9372      3008.0518      12930.989      61729.238      87120        
    167700   167700         1556.1148      304.90543      9897.7357      3047.4249      12945.161      61664.708      87120        
    167800   167800         1556.9828      295.72806      9932.4603      2955.7002      12888.161      61706.367      87120        
    167900   167900         1557.8501      291.16075      9928.1224      2910.0516      12838.174      61677.892      87120        
    168000   168000         1558.7175      295.89074      9899.9774      2957.3262      12857.304      61620.333      87120        
    168100   168100         1559.6018      305.25707      9917.7807      3050.9395      12968.72       61713.431      87120        
    168200   168200         1560.467       309.01988      9897.0753      3088.5475      12985.623      61703.659      87120        
    168300   168300         1561.3362      297.52583      9958.3895      2973.6684      12932.058      61827.512      87120        
    168400   168400         1562.222       294.85807      9971.9192      2947.0051      12918.924      61863.869      87120        
    168500   168500         1563.0855      304.10572      9936.3519      3039.4321      12975.784      61795.476      87120        
    168600   168600         1563.9861      309.50751      9930.1308      3093.4211      13023.552      61756.989      87120        
    168700   168700         1564.8721      299.8376       9935.9487      2996.7737      12932.722      61809.511      87120        
    168800   168800         1565.7624      296.25739      9949.1737      2960.9907      12910.164      61882.755      87120        
    168900   168900         1566.6389      299.12304      9975.1643      2989.6319      12964.796      61826.401      87120        
    169000   169000         1567.5369      305.42         9998.0019      3052.5679      13050.57       62022.136      87120        
    169100   169100         1568.421       307.00209      9967.4266      3068.3804      13035.807      61924.24       87120        
    169200   169200         1569.2964      302.43871      9960.3418      3022.7709      12983.113      61814.295      87120        
    169300   169300         1570.1682      297.23783      9988.2806      2970.7899      12959.071      62051.692      87120        
    169400   169400         1571.0391      302.88425      9940.4038      3027.2239      12967.628      61809.91       87120        
    169500   169500         1571.9204      303.65177      9949.72        3034.895       12984.615      61867.195      87120        
    169600   169600         1572.7885      302.99686      9914.3542      3028.3494      12942.704      61815.706      87120        
    169700   169700         1573.663       292.37929      9929.8505      2922.2305      12852.081      61731.602      87120        
    169800   169800         1574.5311      299.06509      9927.7945      2989.0527      12916.847      61808.138      87120        
    169900   169900         1575.4081      306.05874      9911.995       3058.9519      12970.947      61757.546      87120        
    170000   170000         1576.2888      302.66472      9891.8289      3025.0298      12916.859      61544.816      87120        
    170100   170100         1577.1512      299.31263      9857.7089      2991.5268      12849.236      61497.262      87120        
    170200   170200         1578.017       298.01249      9868.6569      2978.5324      12847.189      61537.43       87120        
    170300   170300         1578.8934      304.45411      9842.2778      3042.9141      12885.192      61393.737      87120        
    170400   170400         1579.759       305.12677      9852.3491      3049.6372      12901.986      61496.891      87120        
    170500   170500         1580.6235      290.43567      9908.7207      2902.8047      12811.525      61621.27       87120        
    170600   170600         1581.4873      288.59897      9924.0335      2884.4474      12808.481      61649.674      87120        
    170700   170700         1582.3662      302.53867      9915.11        3023.77        12938.88       61730.307      87120        
    170800   170800         1583.2242      304.18195      9946.1704      3040.1939      12986.364      61785.45       87120        
    170900   170900         1584.0942      298.03242      9951.6042      2978.7315      12930.336      61867.484      87120        
    171000   171000         1584.9617      299.54059      9902.723       2993.8052      12896.528      61749.412      87120        
    171100   171100         1585.8245      300.6504       9929.6447      3004.8973      12934.542      61815.192      87120        
    171200   171200         1586.6868      299.10743      10005.082      2989.4759      12994.558      62140.606      87120        
    171300   171300         1587.5539      302.39495      9980.8391      3022.3336      13003.173      62010.096      87120        
    171400   171400         1588.4272      299.29655      9972.3084      2991.3661      12963.675      62001.226      87120        
    171500   171500         1589.2969      297.78247      9936.9743      2976.2334      12913.208      61827.508      87120        
    171600   171600         1590.169       290.36161      9994.6739      2902.0644      12896.738      61957.435      87120        
    171700   171700         1591.0375      305.4398       9954.488       3052.7657      13007.254      61896.301      87120        
    171800   171800         1591.9067      301.88783      9940.2616      3017.2651      12957.527      61788.049      87120        
    171900   171900         1592.764       297.91099      9912.3444      2977.5179      12889.862      61677.224      87120        
    172000   172000         1593.6314      299.49756      9888.4351      2993.3751      12881.81       61684.543      87120        
    172100   172100         1594.4893      300.97343      9949.1059      3008.1259      12957.232      61858.03       87120        
    172200   172200         1595.3389      308.66268      9911.6634      3084.9774      12996.641      61735.294      87120        
    172300   172300         1596.2107      299.9433       9891.4287      2997.8301      12889.259      61626.086      87120        
    172400   172400         1597.0582      296.40682      9881.0626      2962.4842      12843.547      61547.564      87120        
    172500   172500         1597.9238      301.50574      9867.4687      3013.4462      12880.915      61510.449      87120        
    172600   172600         1598.7976      305.96534      9845.2684      3058.0183      12903.287      61409.868      87120        
    172700   172700         1599.6678      297.43358      9863.573       2972.7464      12836.319      61487.895      87120        
    172800   172800         1600.5264      298.04617      9854.4119      2978.869       12833.281      61489.653      87120        
    172900   172900         1601.4051      299.53768      9860.1755      2993.7761      12853.952      61557.236      87120        
    173000   173000         1602.2554      302.0957       9873.1139      3019.3426      12892.457      61546.097      87120        
    173100   173100         1603.1068      312.96653      9892.267       3127.9929      13020.26       61591.415      87120        
    173200   173200         1603.9713      307.38725      9947.2507      3072.2298      13019.481      61892.018      87120        
    173300   173300         1606.1949      300.77752      9998.0106      3006.1678      13004.178      62087.266      87120        
    173400   173400         1609.2214      302.34055      10006.737      3021.7899      13028.527      62189.624      87120        
    173500   173500         1610.6408      302.70617      9994.7291      3025.444       13020.173      62136.247      87120        
    173600   173600         1611.7969      299.16749      9970.2637      2990.0762      12960.34       61906.473      87120        
    173700   173700         1612.9407      290.88963      9992.6808      2907.3418      12900.023      62090.432      87120        
    173800   173800         1614.0938      299.81418      9925.0502      2996.5396      12921.59       61840.344      87120        
    173900   173900         1615.2258      304.34265      9934.0892      3041.8001      12975.889      61831.269      87120        
    174000   174000         1616.3731      300.71612      9943.1829      3005.5542      12948.737      61854.354      87120        
    174100   174100         1617.5025      298.4855       9899.1846      2983.2599      12882.445      61623.609      87120        
    174200   174200         1618.6355      294.41323      9908.5054      2942.559       12851.064      61653.093      87120        
    174300   174300         1619.7639      298.94566      9870.9591      2987.8591      12858.818      61513.585      87120        
    174400   174400         1620.8851      301.62052      9886.4923      3014.5934      12901.086      61487.33       87120        
    174500   174500         1622.0185      303.83593      9886.8595      3036.7356      12923.595      61583.52       87120        
    174600   174600         1623.1439      297.55805      9864.7463      2973.9904      12838.737      61504.75       87120        
    174700   174700         1624.2791      293.27109      9883.5598      2931.1437      12814.703      61526.571      87120        
    174800   174800         1625.3954      303.14407      9846.6233      3029.8208      12876.444      61438.275      87120        
    174900   174900         1626.5357      305.2303       9849.1892      3050.6718      12899.861      61496.781      87120        
    175000   175000         1627.6608      301.90576      9886.6903      3017.4442      12904.134      61589.786      87120        
    175100   175100         1628.7812      293.40073      9955.8461      2932.4394      12888.285      61807.637      87120        
    175200   175200         1629.8921      294.78361      9957.8077      2946.2608      12904.068      61844.704      87120        
    175300   175300         1631.0298      305.18962      9964.4989      3050.2653      13014.764      61919.022      87120        
    175400   175400         1632.1602      306.42216      9949.1241      3062.5841      13011.708      61853.413      87120        
    175500   175500         1633.2721      296.30428      9983.6948      2961.4593      12945.154      62016.666      87120        
    175600   175600         1634.3973      300.2741       9955.967       3001.1363      12957.103      61895.993      87120        
    175700   175700         1635.5239      304.56351      9944.6675      3044.0075      12988.675      61931.398      87120        
    175800   175800         1636.6715      296.60154      10008.944      2964.4304      12973.375      62088.476      87120        
    175900   175900         1637.8162      300.99171      9998.304       3008.3086      13006.613      62000.893      87120        
    176000   176000         1638.9338      310.6183       9940.5437      3104.523       13045.067      61834.718      87120        
    176100   176100         1640.0518      303.0644       9905.8112      3029.0244      12934.836      61642.055      87120        
    176200   176200         1641.1645      297.81609      9889.9077      2976.5694      12866.477      61588.234      87120        
    176300   176300         1642.2931      298.5954       9879.65        2984.3584      12864.008      61531.034      87120        
    176400   176400         1643.4149      306.17091      9884.3756      3060.073       12944.449      61612.021      87120        
    176500   176500         1644.5536      309.85438      9847.1774      3096.888       12944.065      61429.218      87120        
    176600   176600         1645.6748      292.99659      9877.5195      2928.4001      12805.92       61465.14       87120        
    176700   176700         1646.7859      299.24871      9856.2777      2990.8879      12847.166      61479.208      87120        
    176800   176800         1647.9018      302.18063      9915.6268      3020.1915      12935.818      61636.825      87120        
    176900   176900         1649.0262      304.96983      9924.3346      3048.0686      12972.403      61729.401      87120        
    177000   177000         1650.1485      301.01033      9922.4544      3008.4947      12930.949      61728.22       87120        
    177100   177100         1651.2551      295.24384      9892.6731      2950.8606      12843.534      61601.586      87120        
    177200   177200         1652.3754      295.24072      9888.5232      2950.8295      12839.353      61594.79       87120        
    177300   177300         1653.4817      298.07555      9909.7673      2979.1626      12888.93       61675.517      87120        
    177400   177400         1654.5903      300.23002      9943.4276      3000.6958      12944.123      61767.198      87120        
    177500   177500         1655.7063      299.06103      9986.0347      2989.0122      12975.047      61956.18       87120        
    177600   177600         1656.8392      298.97594      9970.6596      2988.1617      12958.821      61918.317      87120        
    177700   177700         1657.9533      299.208        9919.9668      2990.4811      12910.448      61737.756      87120        
    177800   177800         1659.0767      291.81486      9974.6411      2916.5892      12891.23       61887.135      87120        
    177900   177900         1660.2035      304.00925      9956.9355      3038.4679      12995.403      61859.665      87120        
    178000   178000         1661.3421      304.8671       9962.1388      3047.0418      13009.181      61879.902      87120        
    178100   178100         1662.4656      298.09537      9953.4059      2979.3607      12932.767      61784.248      87120        
    178200   178200         1663.5799      296.2649       9973.2813      2961.0658      12934.347      61899.586      87120        
    178300   178300         1664.6915      300.04123      9954.597       2998.8089      12953.406      61833.812      87120        
    178400   178400         1665.8015      300.12837      9943.9135      2999.6798      12943.593      61796.103      87120        
    178500   178500         1666.9123      301.1526       9902.5733      3009.9166      12912.49       61667.805      87120        
    178600   178600         1668.0448      295.19425      9902.3643      2950.365       12852.729      61630.361      87120        
    178700   178700         1669.1772      296.20382      9931.6346      2960.4553      12892.09       61701.454      87120        
    178800   178800         1670.3122      299.43913      9973.9376      2992.7911      12966.729      61893.585      87120        
    178900   178900         1671.4293      306.14491      9910.5302      3059.8131      12970.343      61673.84       87120        
    179000   179000         1672.5666      296.66356      9927.5609      2965.0502      12892.611      61718.317      87120        
    179100   179100         1673.6808      291.77793      9943.1562      2916.2201      12859.376      61742.197      87120        
    179200   179200         1674.8044      306.73275      9917.67        3065.6883      12983.358      61709.038      87120        
    179300   179300         1675.923       305.79608      9913.8279      3056.3266      12970.155      61703.822      87120        
    179400   179400         1677.0395      299.62486      9889.4565      2994.6474      12884.104      61570.279      87120        
    179500   179500         1678.1455      299.56185      9861.6633      2994.0176      12855.681      61515.707      87120        
    179600   179600         1679.2717      295.954        9912.7109      2957.9584      12870.669      61662.473      87120        
    179700   179700         1680.391       307.14669      9892.3565      3069.8255      12962.182      61633.755      87120        
    179800   179800         1681.2909      304.83189      9907.1487      3046.6899      12953.839      61598.585      87120        
    179900   179900         1682.1433      299.50712      9900.0418      2993.4707      12893.512      61559.228      87120        
    180000   180000         1682.9994      303.75141      9839.5071      3035.8909      12875.398      61385.746      87120        
    180100   180100         1683.8503      293.4243       9953.7617      2932.675       12886.437      61794.276      87120        
    180200   180200         1684.7046      300.90666      9956.3447      3007.4586      12963.803      61824.114      87120        
    180300   180300         1685.5592      302.81889      9946.3901      3026.5707      12972.961      61798.871      87120        
    180400   180400         1686.4224      299.54593      9902.2649      2993.8585      12896.123      61585.693      87120        
    180500   180500         1687.2674      296.00539      9906.672       2958.4721      12865.144      61571.942      87120        
    180600   180600         1688.1249      301.67441      9888.0275      3015.132       12903.159      61572.732      87120        
    180700   180700         1688.9737      303.9167       9921.7608      3037.5429      12959.304      61698.721      87120        
    180800   180800         1689.862       305.47235      9947.6437      3053.0911      13000.735      61809.085      87120        
    180900   180900         1690.7233      298.31629      9931.197       2981.5688      12912.766      61661.273      87120        
    181000   181000         1691.5923      293.42057      9926.3429      2932.6377      12858.981      61646.153      87120        
    181100   181100         1692.4413      303.07505      9890.9172      3029.1309      12920.048      61537.889      87120        
    181200   181200         1693.3093      303.10835      9915.3594      3029.4638      12944.823      61565.904      87120        
    181300   181300         1694.172       290.85023      9932.9898      2906.948       12839.938      61708.916      87120        
    181400   181400         1695.0364      294.68755      9911.6483      2945.3007      12856.949      61621.877      87120        
    181500   181500         1695.8986      299.05964      9936.4819      2988.9983      12925.48       61722.545      87120        
    181600   181600         1696.764       307.58553      9876.5686      3074.2116      12950.78       61553.378      87120        
    181700   181700         1697.6245      300.9856       9910.8704      3008.2475      12919.118      61634.438      87120        
    181800   181800         1698.5054      296.40691      9949.4774      2962.4851      12911.963      61772.168      87120        
    181900   181900         1699.37        306.10987      9865.4009      3059.4629      12924.864      61531.692      87120        
    182000   182000         1700.2256      292.72871      9922.3778      2925.7227      12848.101      61651.605      87120        
    182100   182100         1701.0624      292.43328      9952.8971      2922.7701      12875.667      61833.292      87120        
    182200   182200         1701.9265      301.39421      9934.0491      3012.3315      12946.381      61709.757      87120        
    182300   182300         1702.7676      303.29972      9913.8831      3031.3764      12945.26       61622.379      87120        
    182400   182400         1703.6187      302.61309      9897.5273      3024.5137      12922.041      61627.537      87120        
    182500   182500         1704.472       295.40153      9933.3228      2952.4367      12885.759      61734.931      87120        
    182600   182600         1705.3259      286.85685      9975.3788      2867.0355      12842.414      61914.442      87120        
    182700   182700         1706.1898      301.45053      9942.163       3012.8943      12955.057      61814.903      87120        
    182800   182800         1707.0514      302.55851      9960.3797      3023.9682      12984.348      61843.196      87120        
    182900   182900         1707.9005      302.97553      9925.653       3028.1363      12953.789      61752.186      87120        
    183000   183000         1708.7753      295.54062      9937.4616      2953.8269      12891.288      61756.02       87120        
    183100   183100         1709.6338      297.72657      9942.8715      2975.6747      12918.546      61801.182      87120        
    183200   183200         1710.4981      307.61489      9959.279       3074.5051      13033.784      61859.416      87120        
    183300   183300         1711.348       304.52878      9966.5196      3043.6604      13010.18       61900.735      87120        
    183400   183400         1712.2155      298.59384      9967.6656      2984.3427      12952.008      61918.07       87120        
    183500   183500         1713.0913      295.46018      9989.2823      2953.0229      12942.305      61903.99       87120        
    183600   183600         1713.961       306.53057      9878.2377      3063.6676      12941.905      61570.76       87120        
    183700   183700         1714.8226      297.07912      9935.3184      2969.2037      12904.522      61749.523      87120        
    183800   183800         1715.6905      291.20714      9923.3838      2910.5152      12833.899      61701.147      87120        
    183900   183900         1716.5399      294.4697       9913.786       2943.1234      12856.909      61694.505      87120        
    184000   184000         1717.4055      300.73538      9945.383       3005.7467      12951.13       61829.5        87120        
    184100   184100         1718.2607      299.13572      9965.0289      2989.7587      12954.788      61877.589      87120        
    184200   184200         1719.1152      301.40066      9932.8902      3012.3959      12945.286      61794.874      87120        
    184300   184300         1719.9626      296.88087      9950.2583      2967.2222      12917.48       61771.122      87120        
    184400   184400         1720.8252      297.92494      9925.2269      2977.6574      12902.884      61735.486      87120        
    184500   184500         1721.6829      302.03466      9911.0134      3018.7325      12929.746      61683.461      87120        
    184600   184600         1722.5441      301.93202      9969.1425      3017.7068      12986.849      61884.535      87120        
    184700   184700         1723.4062      303.35953      9955.603       3031.9742      12987.577      61859.447      87120        
    184800   184800         1724.2669      298.60008      9916.8342      2984.4051      12901.239      61716.223      87120        
    184900   184900         1725.1088      293.65188      9882.9227      2934.9496      12817.872      61484.03       87120        
    185000   185000         1725.9697      300.10185      9888.0896      2999.4148      12887.504      61550.886      87120        
    185100   185100         1726.8298      304.90034      9894.2696      3047.374       12941.644      61587.451      87120        
    185200   185200         1727.6941      298.28528      9915.4409      2981.2587      12896.7        61591.578      87120        
    185300   185300         1728.5509      300.02087      9876.8842      2998.6054      12875.49       61541.274      87120        
    185400   185400         1729.3991      295.2507       9941.1986      2950.9292      12892.128      61740.777      87120        
    185500   185500         1730.2697      309.16253      9910.1961      3089.9732      13000.169      61618.79       87120        
    185600   185600         1731.1197      302.0589       9945.3705      3018.9748      12964.345      61802.306      87120        
    185700   185700         1731.9677      296.22823      9948.619       2960.6992      12909.318      61788.772      87120        
    185800   185800         1732.8369      298.81252      9954.6141      2986.5284      12941.142      61806.678      87120        
    185900   185900         1733.7025      306.62795      9936.0734      3064.6409      13000.714      61858.189      87120        
    186000   186000         1734.5639      301.46272      9958.9878      3013.0163      12972.004      61805.465      87120        
    186100   186100         1735.4078      292.50243      9979.5634      2923.4612      12903.025      61878.562      87120        
    186200   186200         1736.2846      298.69582      9977.5855      2985.362       12962.947      61984.35       87120        
    186300   186300         1737.1394      300.22115      9987.6257      3000.6071      12988.233      62018.676      87120        
    186400   186400         1737.9869      307.92046      9912.7541      3077.5591      12990.313      61760.572      87120        
    186500   186500         1738.8351      296.11269      9995.4263      2959.5445      12954.971      62023.002      87120        
    186600   186600         1739.6783      291.27136      10013.206      2911.1571      12924.363      62094.046      87120        
    186700   186700         1740.5432      304.22962      9895.1125      3040.6704      12935.783      61616.526      87120        
    186800   186800         1741.3991      298.22376      9950.665       2980.6439      12931.309      61819.071      87120        
    186900   186900         1742.2453      297.88403      9922.0746      2977.2484      12899.323      61701.107      87120        
    187000   187000         1743.0816      292.39052      9917.3727      2922.3427      12839.715      61611.163      87120        
    187100   187100         1743.9063      297.45426      9882.8564      2972.953       12855.809      61556.169      87120        
    187200   187200         1744.732       303.80992      9900.4262      3036.4757      12936.902      61559.085      87120        
    187300   187300         1745.5803      300.63269      9933.1174      3004.7203      12937.838      61732.712      87120        
    187400   187400         1746.4126      301.65835      9891.9622      3014.9715      12906.934      61683.962      87120        
    187500   187500         1747.2448      298.15051      9893.6193      2979.9118      12873.531      61594.242      87120        
    187600   187600         1748.0772      295.08226      9859.7499      2949.2457      12808.996      61434.383      87120        
    187700   187700         1748.9087      294.12989      9873.4077      2939.7271      12813.135      61525.843      87120        
    187800   187800         1749.7432      300.24428      9933.9282      3000.8383      12934.766      61708.305      87120        
    187900   187900         1750.5907      300.41079      9963.229       3002.5025      12965.732      61877.016      87120        
    188000   188000         1751.4268      299.78143      9921.1341      2996.2123      12917.346      61733.896      87120        
    188100   188100         1752.2665      294.69245      9928.2089      2945.3497      12873.559      61668.787      87120        
    188200   188200         1753.0942      302.56516      9930.3541      3024.0347      12954.389      61728.911      87120        
    188300   188300         1753.93        307.63813      9934.748       3074.7373      13009.485      61792.006      87120        
    188400   188400         1754.7784      301.29059      9943.2549      3011.2958      12954.551      61734.426      87120        
    188500   188500         1755.6108      294.24379      9971.6555      2940.8655      12912.521      61900.69       87120        
    188600   188600         1756.4474      295.64595      9938.9687      2954.8796      12893.848      61778.928      87120        
    188700   188700         1757.2832      302.63917      9920.8169      3024.7745      12945.591      61654.249      87120        
    188800   188800         1758.1168      309.58481      9916.4738      3094.1937      13010.668      61666.885      87120        
    188900   188900         1758.954       308.77996      9866.4636      3086.1495      12952.613      61462.544      87120        
    189000   189000         1759.7857      301.67656      9889.5697      3015.1535      12904.723      61518.661      87120        
    189100   189100         1760.607       297.80633      9896.1225      2976.4719      12872.594      61584.618      87120        
    189200   189200         1761.4334      292.48536      9914.5686      2923.2906      12837.859      61654.255      87120        
    189300   189300         1762.2593      301.52572      9885.3394      3013.6459      12898.985      61519.594      87120        
    189400   189400         1763.0899      301.08241      9953.3613      3009.2151      12962.576      61763.286      87120        
    189500   189500         1763.9469      304.38354      9886.2234      3042.2088      12928.432      61535.865      87120        
    189600   189600         1764.786       297.33559      9884.9921      2971.767       12856.759      61423.984      87120        
    189700   189700         1765.6284      299.76527      9861.8736      2996.0507      12857.924      61430.656      87120        
    189800   189800         1766.4719      298.9124       9892.4232      2987.5266      12879.95       61551.26       87120        
    189900   189900         1767.3145      302.84241      9880.0104      3026.8058      12906.816      61468.089      87120        
    190000   190000         1768.1471      295.81618      9950.5671      2956.581       12907.148      61711.368      87120        
    190100   190100         1768.9743      296.46173      9926.3947      2963.033       12889.428      61671.226      87120        
    190200   190200         1769.8112      301.61937      9847.9829      3014.5818      12862.565      61399.24       87120        
    190300   190300         1770.6593      298.7958       9849.101       2986.3612      12835.462      61445.673      87120        
    190400   190400         1771.4951      293.18686      9936.6908      2930.3018      12866.993      61718.06       87120        
    190500   190500         1772.3423      304.51796      9961.0786      3043.5523      13004.631      61793.345      87120        
    190600   190600         1773.1814      304.24403      9959.316       3040.8144      13000.13       61889.369      87120        
    190700   190700         1774.0271      298.68745      9913.4801      2985.2784      12898.758      61641.375      87120        
    190800   190800         1774.868       299.597        9899.1398      2994.3689      12893.509      61612.703      87120        
    190900   190900         1775.706       299.88697      9917.3764      2997.2671      12914.644      61782.886      87120        
    191000   191000         1776.5468      299.49713      9931.4035      2993.3708      12924.774      61751.945      87120        
    191100   191100         1777.3848      295.30737      9955.5712      2951.4956      12907.067      61836.466      87120        
    191200   191200         1778.2242      291.99191      9964.5922      2918.3587      12882.951      61837.274      87120        
    191300   191300         1779.0599      301.34726      9952.677       3011.8622      12964.539      61758.017      87120        
    191400   191400         1779.8933      307.04028      9941.4738      3068.762       13010.236      61821.093      87120        
    191500   191500         1780.7255      301.20572      9915.0012      3010.4476      12925.449      61704.097      87120        
    191600   191600         1781.5803      297.31681      9882.4328      2971.5793      12854.012      61500.81       87120        
    191700   191700         1782.4372      301.29133      9861.0238      3011.3032      12872.327      61460.484      87120        
    191800   191800         1783.2807      301.51931      9894.024       3013.5818      12907.606      61592.972      87120        
    191900   191900         1784.109       308.48448      9825.0068      3083.1963      12908.203      61280.923      87120        
    192000   192000         1784.9426      291.84397      9905.556       2916.8801      12822.436      61571.778      87120        
    192100   192100         1785.7797      299.38409      9812.1157      2992.241       12804.357      61321.859      87120        
    192200   192200         1786.6064      302.25632      9843.7038      3020.9479      12864.652      61419.908      87120        
    192300   192300         1787.4368      303.10656      9903.9169      3029.4459      12933.363      61585.482      87120        
    192400   192400         1788.2817      307.47093      9853.5682      3073.0662      12926.634      61398.35       87120        
    192500   192500         1789.1326      300.85438      9883.1028      3006.9361      12890.039      61464.185      87120        
    192600   192600         1789.9833      298.78844      9920.604       2986.2877      12906.892      61658.506      87120        
    192700   192700         1790.842       300.05047      9927.1862      2998.9013      12926.087      61680.021      87120        
    192800   192800         1791.6926      301.57478      9916.4821      3014.1362      12930.618      61630.783      87120        
    192900   192900         1792.5349      298.70517      9918.7244      2985.4555      12904.18       61676.056      87120        
    193000   193000         1793.3816      296.67013      9920.1396      2965.1159      12885.255      61729.977      87120        
    193100   193100         1794.2259      298.29938      9950.4705      2981.3998      12931.87       61846.256      87120        
    193200   193200         1795.0871      308.99852      9948.0129      3088.3339      13036.347      61866.805      87120        
    193300   193300         1795.9446      303.15368      9978.7952      3029.9168      13008.712      61885.072      87120        
    193400   193400         1796.7797      298.20284      9904.3596      2980.4349      12884.794      61612.402      87120        
    193500   193500         1797.6279      296.9219       9903.7332      2967.6322      12871.365      61633.605      87120        
    193600   193600         1798.4697      300.87764      9907.1847      3007.1685      12914.353      61634.684      87120        
    193700   193700         1799.3159      299.16874      9952.2834      2990.0887      12942.372      61844.848      87120        
    193800   193800         1800.1516      300.6156       9949.806       3004.5495      12954.356      61856.041      87120        
    193900   193900         1800.9963      301.33811      9906.8074      3011.7708      12918.578      61604.196      87120        
    194000   194000         1801.8278      294.35344      9922.7993      2941.9614      12864.761      61719.116      87120        
    194100   194100         1802.6706      296.85799      9923.3129      2966.9936      12890.307      61667.61       87120        
    194200   194200         1803.5188      305.78716      9898.9468      3056.2375      12955.184      61594.685      87120        
    194300   194300         1804.3592      303.40256      9878.6332      3032.4042      12911.037      61560.775      87120        
    194400   194400         1805.201       292.6785       9903.1175      2925.221       12828.338      61616.022      87120        
    194500   194500         1806.0294      297.13097      9904.9916      2969.7219      12874.713      61642.175      87120        
    194600   194600         1806.8697      305.98989      9854.654       3058.2638      12912.918      61446.422      87120        
    194700   194700         1807.7142      300.31083      9895.5811      3001.5034      12897.085      61566.53       87120        
    194800   194800         1808.5575      292.95811      9918.9724      2928.0155      12846.988      61627.152      87120        
    194900   194900         1809.4094      290.26897      9886.7845      2901.1385      12787.923      61544.666      87120        
    195000   195000         1810.2615      296.26115      9912.6461      2961.0283      12873.674      61620.18       87120        
    195100   195100         1811.0981      301.24179      9947.4549      3010.8081      12958.263      61848.541      87120        
    195200   195200         1811.9386      299.62286      9955.0619      2994.6275      12949.689      61834.35       87120        
    195300   195300         1812.7807      301.49097      9908.4568      3013.2986      12921.755      61654.079      87120        
    195400   195400         1813.6078      296.85437      9871.761       2966.9573      12838.718      61549.449      87120        
    195500   195500         1814.4299      288.96253      9913.7584      2888.0811      12801.84       61654.852      87120        
    195600   195600         1815.265       302.50564      9899.8375      3023.4398      12923.277      61598.689      87120        
    195700   195700         1816.0973      301.21209      9889.1093      3010.5113      12899.621      61568.856      87120        
    195800   195800         1816.9316      302.14552      9810.2885      3019.8406      12830.129      61233.508      87120        
    195900   195900         1817.7491      295.91809      9789.9785      2957.5995      12747.578      61135.019      87120        
    196000   196000         1818.5809      297.39626      9823.4021      2972.3734      12795.775      61297.903      87120        
    196100   196100         1819.4002      302.96717      9868.955       3028.0527      12897.008      61380.023      87120        
    196200   196200         1820.2368      301.53882      9846.0927      3013.7768      12859.869      61369.142      87120        
    196300   196300         1821.0614      297.76747      9843.7969      2976.0835      12819.88       61395.403      87120        
    196400   196400         1821.8952      299.59916      9839.3058      2994.3906      12833.696      61388.1        87120        
    196500   196500         1822.7245      303.19924      9848.5635      3030.3721      12878.936      61487.131      87120        
    196600   196600         1823.5442      313.63565      9850.8692      3134.6805      12985.55       61475.988      87120        
    196700   196700         1824.3742      303.10519      9872.5555      3029.4321      12901.988      61516.801      87120        
    196800   196800         1825.2111      298.15961      9887.6561      2980.0028      12867.659      61628.738      87120        
    196900   196900         1826.0423      301.655        9870.6165      3014.938       12885.554      61532.805      87120        
    197000   197000         1826.8803      299.79377      9906.4954      2996.3356      12902.831      61713.245      87120        
    197100   197100         1827.7175      301.12763      9897.6031      3009.6671      12907.27       61685.433      87120        
    197200   197200         1828.5403      293.45881      9942.9086      2933.0199      12875.928      61764.897      87120        
    197300   197300         1829.3618      298.30353      9954.9998      2981.4412      12936.441      61836.957      87120        
    197400   197400         1830.1972      307.4064       9944.3955      3072.4212      13016.817      61888.695      87120        
    197500   197500         1831.0371      305.95501      9898.1777      3057.9151      12956.093      61637.335      87120        
    197600   197600         1831.8748      295.68597      9927.5894      2955.2796      12882.869      61731.777      87120        
    197700   197700         1832.6994      297.10919      9902.8596      2969.5042      12872.364      61622.373      87120        
    197800   197800         1833.5221      300.65047      9890.8707      3004.898       12895.769      61586.252      87120        
    197900   197900         1834.3553      300.68936      9919.4309      3005.2867      12924.718      61655.281      87120        
    198000   198000         1835.1867      303.06736      9857.9512      3029.0541      12887.005      61415.801      87120        
    198100   198100         1836.0042      303.40479      9795.5703      3032.4266      12827.997      61135.097      87120        
    198200   198200         1836.8353      298.94033      9816.9867      2987.8057      12804.792      61274.405      87120        
    198300   198300         1837.6504      295.28274      9894.5104      2951.2494      12845.76       61489.703      87120        
    198400   198400         1838.4666      307.91894      9821.703       3077.5439      12899.247      61211.822      87120        
    198500   198500         1839.293       301.22126      9858.6003      3010.6029      12869.203      61392.453      87120        
    198600   198600         1840.1116      301.4379       9844.7612      3012.7681      12857.529      61393.826      87120        
    198700   198700         1840.9361      299.5745       9839.8113      2994.1441      12833.955      61317.582      87120        
    198800   198800         1841.7701      293.79737      9883.4494      2936.4037      12819.853      61502.664      87120        
    198900   198900         1842.5916      301.01068      9869.0199      3008.4982      12877.518      61452.008      87120        
    199000   199000         1843.4089      306.02322      9895.9313      3058.5968      12954.528      61563.801      87120        
    199100   199100         1844.2341      301.21461      9912.5513      3010.5364      12923.088      61620.87       87120        
    199200   199200         1845.0467      294.82778      9899.0946      2946.7022      12845.797      61595.642      87120        
    199300   199300         1845.861       296.88421      9928.2855      2967.2556      12895.541      61688.9        87120        
    199400   199400         1846.6921      304.35547      9899.3022      3041.9282      12941.23       61606.405      87120        
    199500   199500         1847.5208      298.24761      9948.9045      2980.8823      12929.787      61820.133      87120        
    199600   199600         1848.348       295.83813      9974.2569      2956.8003      12931.057      61913.467      87120        
    199700   199700         1849.1678      305.8531       9959.9252      3056.8966      13016.822      61820.22       87120        
    199800   199800         1849.989       307.9107       9900.1652      3077.4616      12977.627      61629.013      87120        
    199900   199900         1850.8127      304.02073      9853.8679      3038.5827      12892.451      61392.534      87120        
    200000   200000         1851.6216      303.08859      9808.2305      3029.2663      12837.497      61280.011      87120        
    200100   200100         1852.4338      296.63422      9841.2526      2964.757       12806.01       61341.984      87120        
    200200   200200         1853.2516      302.67264      9826.4093      3025.109       12851.518      61270.297      87120        
    200300   200300         1854.072       311.68959      9779.014       3115.2303      12894.244      61203.672      87120        
    200400   200400         1854.893       296.58946      9829.0453      2964.3096      12793.355      61270.872      87120        
    200500   200500         1855.711       296.17025      9827.7184      2960.1198      12787.838      61294.746      87120        
    200600   200600         1856.5162      303.00222      9847.1686      3028.403       12875.572      61505.956      87120        
    200700   200700         1857.3353      306.97625      9848.6913      3068.1221      12916.813      61440.586      87120        
    200800   200800         1858.1568      301.22197      9862.5379      3010.61        12873.148      61494.041      87120        
    200900   200900         1858.9841      296.87012      9891.8614      2967.1147      12858.976      61567.025      87120        
    201000   201000         1859.7949      300.90866      9861.2049      3007.4785      12868.683      61508.077      87120        
    201100   201100         1860.6138      302.4533       9891.0425      3022.9167      12913.959      61597.939      87120        
    201200   201200         1861.4437      301.49401      9940.8446      3013.329       12954.174      61811.075      87120        
    201300   201300         1862.2568      293.09997      9924.7357      2929.4334      12854.169      61726.008      87120        
    201400   201400         1863.0766      291.48906      9924.8525      2913.3329      12838.185      61701.643      87120        
    201500   201500         1863.8983      298.58998      9900.8667      2984.3042      12885.171      61621.124      87120        
    201600   201600         1864.718       303.21492      9874.8082      3030.5288      12905.337      61523.276      87120        
    201700   201700         1865.5375      298.06998      9889.4384      2979.1069      12868.545      61494.549      87120        
    201800   201800         1866.3612      299.31489      9866.7319      2991.5494      12858.281      61494.718      87120        
    201900   201900         1867.1936      300.43639      9884.0705      3002.7584      12886.829      61550.403      87120        
    202000   202000         1868.0275      305.39782      9852.6251      3052.3462      12904.971      61419.072      87120        
    202100   202100         1868.8372      299.3367       9872.1394      2991.7674      12863.907      61440.418      87120        
    202200   202200         1869.6633      295.31136      9862.5812      2951.5355      12814.117      61411.877      87120        
    202300   202300         1870.4785      300.06341      9817.6566      2999.0306      12816.687      61233.726      87120        
    202400   202400         1871.3023      308.07951      9818.9796      3079.1487      12898.128      61260.913      87120        
    202500   202500         1872.1157      305.27979      9880.3431      3051.1665      12931.51       61465.847      87120        
    202600   202600         1872.9417      296.8484       9890.3569      2966.8977      12857.255      61572.462      87120        
    202700   202700         1873.7596      299.32011      9866.049       2991.6016      12857.651      61463.643      87120        
    202800   202800         1874.5887      301.03118      9873.5226      3008.7032      12882.226      61453.208      87120        
    202900   202900         1875.4063      303.85962      9871.7719      3036.9724      12908.744      61528.329      87120        
    203000   203000         1876.2313      298.40797      9859.6775      2982.485       12842.163      61485.329      87120        
    203100   203100         1877.056       288.89849      9907.14        2887.441       12794.581      61562.573      87120        
    203200   203200         1877.8719      301.67906      9873.5121      3015.1785      12888.691      61524.501      87120        
    203300   203300         1878.6985      304.52191      9874.5122      3043.5918      12918.104      61486.906      87120        
    203400   203400         1879.501       299.94122      9881.1102      2997.8093      12878.919      61483.424      87120        
    203500   203500         1880.3173      294.70204      9909.1717      2945.4455      12854.617      61590.659      87120        
    203600   203600         1881.1355      307.36814      9866.1792      3072.0389      12938.218      61469.119      87120        
    203700   203700         1881.9717      303.54071      9920.2856      3033.785       12954.071      61610.49       87120        
    203800   203800         1882.7847      294.53068      9888.8823      2943.7329      12832.615      61481.617      87120        
    203900   203900         1883.6059      297.54842      9849.643       2973.8942      12823.537      61357.706      87120        
    204000   204000         1884.4236      299.604        9848.0524      2994.439       12842.491      61352.753      87120        
    204100   204100         1885.229       302.03779      9857.1201      3018.7638      12875.884      61404.707      87120        
    204200   204200         1886.0387      304.58299      9870.9474      3044.2022      12915.15       61436.362      87120        
    204300   204300         1886.8512      303.78174      9845.6049      3036.1941      12881.799      61353.272      87120        
    204400   204400         1887.6651      293.856        9862.572       2936.9896      12799.562      61397.163      87120        
    204500   204500         1888.4785      300.7176       9844.1882      3005.569       12849.757      61362.505      87120        
    204600   204600         1889.285       306.01864      9862.1068      3058.551       12920.658      61503.384      87120        
    204700   204700         1890.1014      301.97499      9907.4193      3018.1362      12925.556      61607.128      87120        
    204800   204800         1890.9248      296.50351      9931.9385      2963.4507      12895.389      61692.107      87120        
    204900   204900         1891.7369      294.46701      9904.2785      2943.0965      12847.375      61652.125      87120        
    205000   205000         1892.5563      293.63371      9925.4075      2934.768       12860.175      61686.068      87120        
    205100   205100         1893.368       304.38964      9921.7538      3042.2697      12964.024      61755.74       87120        
    205200   205200         1894.1871      304.97933      9928.8427      3048.1635      12977.006      61783.667      87120        
    205300   205300         1895.0071      302.92833      9876.7882      3027.6645      12904.453      61512.456      87120        
    205400   205400         1895.8289      292.61277      9905.1886      2924.564       12829.753      61495.583      87120        
    205500   205500         1896.6436      298.06508      9868.9756      2979.058       12848.034      61415.182      87120        
    205600   205600         1897.4548      298.84545      9845.2849      2986.8575      12832.142      61274.717      87120        
    205700   205700         1898.2729      298.46773      9838.9259      2983.0823      12822.008      61261.892      87120        
    205800   205800         1899.0796      302.20958      9802.4399      3020.4808      12822.921      61190.52       87120        
    205900   205900         1899.8868      299.52905      9809.2886      2993.6898      12802.978      61213.1        87120        
    206000   206000         1900.7021      290.71868      9832.6419      2905.6332      12738.275      61232.795      87120        
    206100   206100         1901.5063      301.59812      9813.1327      3014.3695      12827.502      61253.406      87120        
    206200   206200         1902.3163      301.07542      9862.5508      3009.1453      12871.696      61448.735      87120        
    206300   206300         1903.1346      302.17836      9833.6687      3020.1688      12853.837      61268.973      87120        
    206400   206400         1903.9417      299.64818      9811.2063      2994.8805      12806.087      61235.124      87120        
    206500   206500         1904.7608      299.93551      9806.1576      2997.7522      12803.91       61231.134      87120        
    206600   206600         1905.5712      298.79232      9840.4842      2986.3265      12826.811      61341.84       87120        
    206700   206700         1906.3975      296.17059      9878.9896      2960.1232      12839.113      61510.689      87120        
    206800   206800         1907.2024      304.87892      9845.1555      3047.1599      12892.315      61444.317      87120        
    206900   206900         1908.0173      303.513        9873.7662      3033.508       12907.274      61500.13       87120        
    207000   207000         1908.8436      296.18144      9878.0291      2960.2316      12838.261      61556.454      87120        
    207100   207100         1909.6486      298.00387      9845.0165      2978.4462      12823.463      61408.167      87120        
    207200   207200         1910.476       304.99565      9866.1192      3048.3267      12914.446      61509.872      87120        
    207300   207300         1911.2951      306.99464      9881.6704      3068.3058      12949.976      61620.739      87120        
    207400   207400         1912.1105      299.89319      9916.7424      2997.3293      12914.072      61712.149      87120        
    207500   207500         1912.9258      297.2615       9948.8872      2971.0265      12919.914      61801.954      87120        
    207600   207600         1913.7432      300.76973      9933.2155      3006.09        12939.306      61815.621      87120        
    207700   207700         1914.559       301.8388       9882.1183      3016.775       12898.893      61561.964      87120        
    207800   207800         1915.3736      292.52165      9860.6729      2923.6533      12784.326      61505.479      87120        
    207900   207900         1916.1874      288.58182      9899.6242      2884.2761      12783.9        61581.813      87120        
    208000   208000         1917.0017      298.50684      9866.8068      2983.4732      12850.28       61443.484      87120        
    208100   208100         1917.8184      300.26716      9835.773       3001.067       12836.84       61322.325      87120        
    208200   208200         1918.6295      300.50677      9814.0151      3003.4618      12817.477      61212.653      87120        
    208300   208300         1919.4341      299.84643      9792.5704      2996.862       12789.432      61148.621      87120        
    208400   208400         1920.2506      293.54803      9809.2674      2933.9116      12743.179      61207.214      87120        
    208500   208500         1921.0572      297.29437      9831.2234      2971.355       12802.578      61268.818      87120        
    208600   208600         1921.8678      305.60075      9844.8989      3054.3744      12899.273      61438.992      87120        
    208700   208700         1922.6885      303.00836      9851.2469      3028.4644      12879.711      61450.393      87120        
    208800   208800         1923.5099      296.76707      9837.4916      2966.0848      12803.576      61284.189      87120        
    208900   208900         1924.3196      296.699        9847.2407      2965.4045      12812.645      61375.297      87120        
    209000   209000         1925.1404      303.47249      9879.8601      3033.1032      12912.963      61522.932      87120        
    209100   209100         1925.9536      311.80998      9840.3779      3116.4335      12956.811      61335.084      87120        
    209200   209200         1926.7591      305.4431       9845.8414      3052.7987      12898.64       61418.664      87120        
    209300   209300         1927.5893      297.15549      9876.9363      2969.967       12846.903      61503.398      87120        
    209400   209400         1928.408       298.39003      9837.3046      2982.3057      12819.61       61320.139      87120        
    209500   209500         1929.2236      301.75975      9854.0205      3015.9849      12870.005      61407.665      87120        
    209600   209600         1930.0498      311.37274      9829.6453      3112.0635      12941.709      61362.919      87120        
    209700   209700         1930.8645      297.7868       9905.998       2976.2767      12882.275      61568.663      87120        
    209800   209800         1931.6884      296.99864      9839.14        2968.3993      12807.539      61298.143      87120        
    209900   209900         1932.5062      298.00563      9832.1642      2978.4638      12810.628      61289.763      87120        
    210000   210000         1933.3122      299.91353      9841.8388      2997.5326      12839.371      61316.554      87120        
    210100   210100         1934.1276      301.35666      9838.3841      3011.9562      12850.34       61332.058      87120        
    210200   210200         1934.9414      298.13125      9904.6747      2979.7193      12884.394      61609.69       87120        
    210300   210300         1935.7555      305.6212       9866.6213      3054.5788      12921.2        61496.766      87120        
    210400   210400         1936.567       303.25894      9823.8855      3030.9689      12854.854      61293.479      87120        
    210500   210500         1937.3701      295.17293      9816.4839      2950.1519      12766.636      61295.771      87120        
    210600   210600         1938.1835      290.23618      9929.8111      2900.8108      12830.622      61713.277      87120        
    210700   210700         1938.976       304.31589      9864.7779      3041.5326      12906.311      61467.432      87120        
    210800   210800         1939.7928      301.60273      9876.0091      3014.4156      12890.425      61544.195      87120        
    210900   210900         1940.5971      296.2594       9889.2598      2961.0108      12850.271      61571.882      87120        
    211000   211000         1941.4006      293.40068      9842.7816      2932.4389      12775.221      61339.12       87120        
    211100   211100         1942.1933      291.5221       9861.6226      2913.6631      12775.286      61415.998      87120        
    211200   211200         1942.992       301.44503      9875.9386      3012.8394      12888.778      61496.692      87120        
    211300   211300         1943.7917      301.73523      9874.5426      3015.7398      12890.282      61444.291      87120        
    211400   211400         1944.6054      300.8585       9830.0502      3006.9772      12837.027      61315.179      87120        
    211500   211500         1945.4117      295.12939      9860.3948      2949.7167      12810.112      61381.38       87120        
    211600   211600         1946.2176      302.57283      9835.4562      3024.1114      12859.568      61283.338      87120        
    211700   211700         1947.0172      309.39807      9853.7084      3092.3274      12946.036      61396.962      87120        
    211800   211800         1947.817       301.90721      9872.2217      3017.4587      12889.68       61438.959      87120        
    211900   211900         1948.6202      295.2456       9888.2802      2950.8782      12839.158      61465.11       87120        
    212000   212000         1949.4224      295.22318      9896.5252      2950.6541      12847.179      61500.711      87120        
    212100   212100         1950.2136      307.75412      9824.125       3075.8966      12900.022      61302.069      87120        
    212200   212200         1951.007       299.77389      9892.0253      2996.1369      12888.162      61478.947      87120        
    212300   212300         1951.8027      292.37443      9849.7184      2922.1819      12771.9        61322.442      87120        
    212400   212400         1952.5985      289.11512      9883.7067      2889.6062      12773.313      61460.383      87120        
    212500   212500         1953.4058      299.92643      9855.6891      2997.6615      12853.351      61338.2        87120        
    212600   212600         1954.2048      302.0312       9831.6448      3018.698       12850.343      61253.359      87120        
    212700   212700         1955.0028      296.3309       9884.1645      2961.7254      12845.89       61464.01       87120        
    212800   212800         1955.8151      300.66283      9844.9547      3005.0216      12849.976      61364.029      87120        
    212900   212900         1956.6219      298.94759      9866.6633      2987.8784      12854.542      61428.039      87120        
    213000   213000         1957.4293      300.70523      9874.4852      3005.4453      12879.931      61431.31       87120        
    213100   213100         1958.2357      300.7549       9871.2114      3005.9418      12877.153      61381.304      87120        
    213200   213200         1959.0312      298.39059      9867.4087      2982.3114      12849.72       61372.129      87120        
    213300   213300         1959.8236      303.79862      9825.0751      3036.3627      12861.438      61257.701      87120        
    213400   213400         1960.6211      302.20175      9855.706       3020.4025      12876.109      61339.511      87120        
    213500   213500         1961.4213      302.37849      9875.8629      3022.169       12898.032      61414.978      87120        
    213600   213600         1962.2339      301.40859      9845.2541      3012.4752      12857.729      61317.282      87120        
    213700   213700         1963.0278      295.36481      9835.4579      2952.0697      12787.528      61208.53       87120        
    213800   213800         1963.8288      298.35126      9800.6125      2981.9182      12782.531      61139.787      87120        
    213900   213900         1964.6367      301.75179      9885.3732      3015.9054      12901.279      61490.831      87120        
    214000   214000         1965.4412      303.89875      9896.2002      3037.3635      12933.564      61495.368      87120        
    214100   214100         1966.2311      302.59971      9845.936       3024.38        12870.316      61397.508      87120        
    214200   214200         1967.0214      298.59635      9834.0953      2984.3678      12818.463      61305.254      87120        
    214300   214300         1967.8189      302.79231      9801.4463      3026.305       12827.751      61126.733      87120        
    214400   214400         1968.6179      299.30346      9809.2938      2991.4351      12800.729      61240.2        87120        
    214500   214500         1969.4171      288.67458      9832.0833      2885.2032      12717.287      61244.34       87120        
    214600   214600         1970.2244      292.93646      9843.3285      2927.7992      12771.128      61324.951      87120        
    214700   214700         1971.0307      300.03291      9844.8343      2998.7258      12843.56       61403.509      87120        
    214800   214800         1971.8227      300.92164      9896.3783      3007.6083      12903.987      61582.249      87120        
    214900   214900         1972.6276      305.85472      9860.8956      3056.9127      12917.808      61436.932      87120        
    215000   215000         1973.4217      298.83467      9857.285       2986.7498      12844.035      61379.706      87120        
    215100   215100         1974.2248      298.74603      9823.2333      2985.8638      12809.097      61313.337      87120        
    215200   215200         1975.0407      297.08022      9841.6462      2969.2146      12810.861      61389.208      87120        
    215300   215300         1975.8399      299.88836      9833.0204      2997.281       12830.301      61342.808      87120        
    215400   215400         1976.6242      305.0336       9841.9859      3048.7059      12890.692      61351.913      87120        
    215500   215500         1977.4184      309.10686      9872.4814      3089.4168      12961.898      61515.808      87120        
    215600   215600         1978.2159      303.7071       9835.7852      3035.448       12871.233      61337.074      87120        
    215700   215700         1979.0153      295.38978      9845.3161      2952.3193      12797.635      61338.121      87120        
    215800   215800         1979.802       295.98419      9839.7228      2958.2602      12797.983      61366.484      87120        
    215900   215900         1980.6031      299.4559       9842.2638      2992.9587      12835.223      61365.917      87120        
    216000   216000         1981.4014      307.40478      9842.4551      3072.4051      12914.86       61393.948      87120        
    216100   216100         1982.1918      306.2645       9833.4344      3061.0084      12894.443      61345.564      87120        
    216200   216200         1982.9837      298.95785      9778.836       2987.9809      12766.817      61128.147      87120        
    216300   216300         1983.7886      297.15484      9797.19        2969.9605      12767.15       61146.134      87120        
    216400   216400         1984.5747      302.47167      9786.9519      3023.1003      12810.052      61093.874      87120        
    216500   216500         1985.3769      298.81775      9827.7927      2986.5806      12814.373      61228.407      87120        
    216600   216600         1986.1753      297.28505      9837.7454      2971.2618      12809.007      61326.008      87120        
    216700   216700         1986.9712      296.74639      9822.5788      2965.8781      12788.457      61200.498      87120        
    216800   216800         1987.7704      299.42191      9788.9248      2992.619       12781.544      61141.311      87120        
    216900   216900         1988.5578      298.26725      9811.8367      2981.0786      12792.915      61222.301      87120        
    217000   217000         1989.3628      301.5834       9831.6516      3014.2223      12845.874      61235.793      87120        
    217100   217100         1990.1623      306.52896      9832.3394      3063.6515      12895.991      61369.65       87120        
    217200   217200         1990.967       302.61259      9839.3427      3024.5088      12863.851      61346.744      87120        
    217300   217300         1991.7572      293.18511      9838.1502      2930.2844      12768.435      61208.62       87120        
    217400   217400         1992.5655      296.32575      9836.9118      2961.6739      12798.586      61307.392      87120        
    217500   217500         1993.3528      298.61182      9854.6234      2984.5224      12839.146      61341.22       87120        
    217600   217600         1994.1583      303.20148      9830.9494      3030.3945      12861.344      61218.619      87120        
    217700   217700         1994.957       295.54804      9890.6534      2953.9011      12844.554      61435.989      87120        
    217800   217800         1995.7612      299.90784      9869.4993      2997.4757      12866.975      61385.263      87120        
    217900   217900         1996.5696      308.41277      9897.6645      3082.4796      12980.144      61497.456      87120        
    218000   218000         1997.3775      305.70767      9888.3987      3055.4431      12943.842      61480.483      87120        
    218100   218100         1998.1589      297.97601      9902.6736      2978.1677      12880.841      61533.988      87120        
    218200   218200         1998.9549      298.76942      9875.148       2986.0976      12861.246      61385.018      87120        
    218300   218300         1999.7487      301.91492      9808.1854      3017.5358      12825.721      61155.418      87120        
    218400   218400         2000.5424      298.41689      9824.9335      2982.5742      12807.508      61219.082      87120        
    218500   218500         2001.3246      307.22897      9807.1437      3070.6479      12877.792      61146.478      87120        
    218600   218600         2002.1194      303.99674      9850.8539      3038.3429      12889.197      61255.472      87120        
    218700   218700         2002.9116      295.7331       9857.4104      2955.7506      12813.161      61320.488      87120        
    218800   218800         2003.7033      298.85762      9804.3303      2986.9791      12791.309      61103.839      87120        
    218900   218900         2004.4809      295.14068      9845.8936      2949.8296      12795.723      61302.648      87120        
    219000   219000         2005.2773      297.02497      9863.0105      2968.6624      12831.673      61345.06       87120        
    219100   219100         2006.0688      305.04781      9809.9891      3048.848       12858.837      61119.42       87120        
    219200   219200         2006.8628      295.34785      9865.7954      2951.9002      12817.696      61337.356      87120        
    219300   219300         2007.6562      292.16971      9843.8803      2920.1357      12764.016      61221.95       87120        
    219400   219400         2008.4396      299.65228      9757.8782      2994.9215      12752.8        61022.506      87120        
    219500   219500         2009.2297      299.79544      9839.6623      2996.3523      12836.015      61280.041      87120        
    219600   219600         2010.0228      305.48808      9853.5591      3053.2483      12906.807      61362.625      87120        
    219700   219700         2010.8203      300.99905      9860.7         3008.382       12869.082      61396.789      87120        
    219800   219800         2011.6201      297.49299      9838.9743      2973.3401      12812.314      61296.979      87120        
    219900   219900         2012.4243      301.30352      9810.1897      3011.4251      12821.615      61228.388      87120        
    220000   220000         2013.2095      302.9045       9801.4926      3027.4263      12828.919      61140.049      87120        
    220100   220100         2013.9945      297.48577      9836.9423      2973.268       12810.21       61252.098      87120        
    220200   220200         2014.7794      295.74758      9848.3193      2955.8953      12804.215      61328.089      87120        
    220300   220300         2015.5642      299.67007      9844.5061      2995.0993      12839.605      61244.506      87120        
    220400   220400         2016.3551      306.22586      9832.5111      3060.6222      12893.133      61287.163      87120        
    220500   220500         2017.1485      298.71163      9864.8147      2985.52        12850.335      61336.443      87120        
    220600   220600         2017.9456      292.39617      9830.5207      2922.3991      12752.92       61157.297      87120        
    220700   220700         2018.7371      297.85593      9792.6984      2976.9676      12769.666      61093.187      87120        
    220800   220800         2019.5284      296.56032      9847.8612      2964.0184      12811.88       61239.984      87120        
    220900   220900         2020.3079      301.77409      9815.6657      3016.1283      12831.794      61117.008      87120        
    221000   221000         2021.0985      300.2622       9829.612       3001.0175      12830.63       61237.996      87120        
    221100   221100         2021.8853      303.82808      9830.4925      3036.6572      12867.15       61187.897      87120        
    221200   221200         2022.6703      305.75739      9828.3486      3055.9399      12884.289      61143.438      87120        
    221300   221300         2023.4578      299.9502       9805.5049      2997.8991      12803.404      61108.204      87120        
    221400   221400         2024.236       293.5344       9826.6496      2933.7754      12760.425      61082.655      87120        
    221500   221500         2025.0234      297.14625      9820.2975      2969.8745      12790.172      61147.687      87120        
    221600   221600         2025.8011      304.76253      9791.5202      3045.9967      12837.517      61058.6        87120        
    221700   221700         2026.5858      307.76356      9815.7256      3075.9909      12891.717      61160.161      87120        
    221800   221800         2027.3688      301.1118       9819.32        3009.5089      12828.829      61119.942      87120        
    221900   221900         2028.1535      298.19478      9801.2774      2980.3542      12781.632      61056.151      87120        
    222000   222000         2028.9464      298.50526      9817.2272      2983.4574      12800.685      61241.88       87120        
    222100   222100         2029.7281      302.22684      9837.369       3020.6533      12858.022      61274.759      87120        
    222200   222200         2030.5099      305.57187      9881.292       3054.0857      12935.378      61431.894      87120        
    222300   222300         2031.2955      299.30292      9873.7977      2991.4298      12865.227      61447.518      87120        
    222400   222400         2032.0832      295.20369      9868.3834      2950.4593      12818.843      61347.993      87120        
    222500   222500         2032.8591      301.16654      9852.2134      3010.0559      12862.269      61325.346      87120        
    222600   222600         2033.6433      299.36195      9891.3389      2992.0197      12883.359      61442.386      87120        
    222700   222700         2034.4297      309.45033      9785.85        3092.8496      12878.7        61116.698      87120        
    222800   222800         2035.2182      293.04928      9853.708       2928.9268      12782.635      61339.179      87120        
    222900   222900         2036.0036      298.62054      9812.6448      2984.6096      12797.254      61108.663      87120        
    223000   223000         2036.7899      305.09246      9800.1601      3049.2942      12849.454      61168.021      87120        
    223100   223100         2037.5765      303.13961      9776.7566      3029.7762      12806.533      61010.817      87120        
    223200   223200         2038.3567      300.90164      9762.1476      3007.4084      12769.556      60959.741      87120        
    223300   223300         2039.1392      297.2414       9780.7749      2970.8256      12751.6        61037.395      87120        
    223400   223400         2039.9231      301.33023      9795.0453      3011.692       12806.737      60995.191      87120        
    223500   223500         2040.7057      305.47256      9789.4421      3053.0932      12842.535      61047.616      87120        
    223600   223600         2041.495       298.34033      9781.1756      2981.809       12762.985      60992.77       87120        
    223700   223700         2042.2935      298.06861      9768.6888      2979.0933      12747.782      60966.128      87120        
    223800   223800         2043.0793      298.58821      9801.3921      2984.2865      12785.679      61101.648      87120        
    223900   223900         2043.8648      310.0996       9807.4246      3099.3389      12906.763      61130.306      87120        
    224000   224000         2044.6706      303.35139      9879.9266      3031.8928      12911.819      61372.365      87120        
    224100   224100         2045.4495      299.21471      9839.9721      2990.5481      12830.52       61277.508      87120        
    224200   224200         2046.2453      292.18756      9897.4962      2920.3141      12817.81       61510.195      87120        
    224300   224300         2047.0287      300.41446      9885.7596      3002.5392      12888.299      61456.196      87120        
    224400   224400         2047.8165      304.08139      9880.8105      3039.1889      12919.999      61410.468      87120        
    224500   224500         2048.6037      303.38681      9846.0091      3032.2468      12878.256      61384.932      87120        
    224600   224600         2049.3959      296.29659      9857.5361      2961.3825      12818.919      61302.17       87120        
    224700   224700         2050.197       297.456        9824.4422      2972.9704      12797.413      61195.874      87120        
    224800   224800         2050.9865      306.49709      9856.4588      3063.333       12919.792      61376.415      87120        
    224900   224900         2051.7751      308.5803       9822.5288      3084.154       12906.683      61149.311      87120        
    225000   225000         2052.5665      297.97064      9792.3499      2978.1141      12770.464      61009.544      87120        
    225100   225100         2053.3531      293.25617      9772.6329      2930.9945      12703.627      60944.696      87120        
    225200   225200         2054.1255      301.60669      9716.0128      3014.4552      12730.468      60718.67       87120        
    225300   225300         2054.9006      308.84062      9710.8955      3086.7558      12797.651      60776.354      87120        
    225400   225400         2055.6773      296.56679      9792.0761      2964.0831      12756.159      60967.349      87120        
    225500   225500         2056.4692      291.64184      9742.2203      2914.8598      12657.08       60767.921      87120        
    225600   225600         2057.2552      297.4164       9747.2066      2972.5746      12719.781      60797.362      87120        
    225700   225700         2058.0409      300.27939      9794.5518      3001.1893      12795.741      61065.873      87120        
    225800   225800         2058.8282      301.78635      9817.3996      3016.2508      12833.65       61179.833      87120        
    225900   225900         2059.6125      304.56881      9784.3115      3044.0605      12828.372      61082.452      87120        
    226000   226000         2060.4088      291.36828      9848.4577      2912.1258      12760.583      61373.598      87120        
    226100   226100         2061.186       302.80164      9766.8149      3026.3983      12793.213      61068.722      87120        
    226200   226200         2061.9741      300.95243      9821.7932      3007.916       12829.709      61225.888      87120        
    226300   226300         2062.7564      301.61438      9849.6732      3014.532       12864.205      61357.802      87120        
    226400   226400         2063.5532      296.93362      9814.935       2967.7494      12782.684      61218.692      87120        
    226500   226500         2064.3472      293.92374      9786.2661      2937.6667      12723.933      61123.915      87120        
    226600   226600         2065.1282      291.77361      9837.9301      2916.1769      12754.107      61240.033      87120        
    226700   226700         2065.9204      302.69638      9769.5432      3025.3462      12794.889      61035.306      87120        
    226800   226800         2066.714       297.16797      9807.4033      2970.0916      12777.495      61114.971      87120        
    226900   226900         2067.4983      302.61752      9736.9584      3024.5581      12761.516      60890.656      87120        
    227000   227000         2068.2966      300.20597      9733.8317      3000.4554      12734.287      60907.192      87120        
    227100   227100         2069.0894      292.20438      9786.4983      2920.4823      12706.981      60997.863      87120        
    227200   227200         2069.8746      304.91343      9742.4573      3047.5049      12789.962      60838.933      87120        
    227300   227300         2070.6755      305.42323      9753.8772      3052.6002      12806.477      60947.943      87120        
    227400   227400         2071.4655      296.07908      9758.3318      2959.2086      12717.54       60834.269      87120        
    227500   227500         2072.244       299.73353      9718.7059      2995.7336      12714.439      60758.68       87120        
    227600   227600         2073.051       298.32861      9774.8893      2981.6919      12756.581      61022.187      87120        
    227700   227700         2073.8497      303.93996      9775.801       3037.7753      12813.576      61045.228      87120        
    227800   227800         2074.6484      310.66394      9800.0178      3104.9792      12904.997      61134.312      87120        
    227900   227900         2075.4444      311.20782      9817.7501      3110.4152      12928.165      61203.992      87120        
    228000   228000         2076.2474      297.53795      9836.3113      2973.7895      12810.101      61250.625      87120        
    228100   228100         2077.0364      297.36579      9806.4168      2972.0688      12778.486      61099.743      87120        
    228200   228200         2077.826       295.6014       9848.7678      2954.4344      12803.202      61251.55       87120        
    228300   228300         2078.6151      300.88725      9853.7715      3007.2646      12861.036      61306.271      87120        
    228400   228400         2079.3986      304.33374      9823.2387      3041.7111      12864.95       61130.549      87120        
    228500   228500         2080.2011      293.2354       9835.9243      2930.7869      12766.711      61220.755      87120        
    228600   228600         2080.9983      296.2422       9779.9476      2960.8389      12740.787      60976.975      87120        
    228700   228700         2081.7916      297.50691      9813.811       2973.4793      12787.29       61114.698      87120        
    228800   228800         2082.5836      300.5445       9823.6723      3003.839       12827.511      61248.249      87120        
    228900   228900         2083.3673      303.59342      9785.6187      3034.3118      12819.931      60979.831      87120        
    229000   229000         2084.1581      300.70136      9780.295       3005.4067      12785.702      61028.868      87120        
    229100   229100         2084.9394      298.12908      9739.172       2979.6976      12718.87       60878.947      87120        
    229200   229200         2085.7124      292.93921      9744.1422      2927.8266      12671.969      60842.494      87120        
    229300   229300         2086.5052      300.86234      9780.1323      3007.0156      12787.148      61052.775      87120        
    229400   229400         2087.2922      300.98335      9821.5409      3008.2251      12829.766      61142.849      87120        
    229500   229500         2088.0699      302.50995      9786.612       3023.4829      12810.095      61079.771      87120        
    229600   229600         2088.8584      293.88656      9835.0273      2937.2951      12772.322      61216.049      87120        
    229700   229700         2089.6313      296.84192      9808.0713      2966.8329      12774.904      61090.097      87120        
    229800   229800         2090.4239      306.625        9802.6807      3064.6115      12867.292      61135.525      87120        
    229900   229900         2091.2004      310.14102      9794.3508      3099.7529      12894.104      61067.113      87120        
    230000   230000         2091.9924      298.71325      9853.7728      2985.5362      12839.309      61243.53       87120        
    230100   230100         2092.7723      296.79591      9836.7411      2966.3731      12803.114      61228.395      87120        
    230200   230200         2093.5562      300.45278      9822.1568      3002.9222      12825.079      61152.944      87120        
    230300   230300         2094.3456      306.51885      9816.6383      3063.5505      12880.189      61143.831      87120        
    230400   230400         2095.1193      304.67803      9860.8009      3045.1521      12905.953      61269.71       87120        
    230500   230500         2095.8889      296.53684      9841.5884      2963.7837      12805.372      61193.563      87120        
    230600   230600         2096.6618      298.27538      9744.8415      2981.1598      12726.001      60819.666      87120        
    230700   230700         2097.435       298.45259      9763.2724      2982.931       12746.203      60893.006      87120        
    230800   230800         2098.209       306.6599       9716.3209      3064.9603      12781.281      60699.298      87120        
    230900   230900         2098.993       300.68965      9743.3494      3005.2897      12748.639      60686.764      87120        
    231000   231000         2099.7845      295.23234      9684.1915      2950.7457      12634.937      60533.889      87120        
    231100   231100         2100.5585      294.76551      9739.7892      2946.08        12685.869      60728.391      87120        
    231200   231200         2101.3267      299.92755      9778.5066      2997.6728      12776.179      60853.873      87120        
    231300   231300         2102.106       300.30655      9794.4428      3001.4607      12795.903      60991.904      87120        
    231400   231400         2102.8868      300.51886      9740.2734      3003.5826      12743.856      60758.967      87120        
    231500   231500         2103.6532      298.22576      9754.876       2980.6639      12735.54       60819.582      87120        
    231600   231600         2104.4159      296.6622       9815.7823      2965.0367      12780.819      61136.841      87120        
    231700   231700         2105.1949      300.68184      9836.6687      3005.2116      12841.88       61239.387      87120        
    231800   231800         2105.9777      302.33087      9855.1833      3021.6931      12876.876      61342.905      87120        
    231900   231900         2106.7583      302.18807      9822.0713      3020.2659      12842.337      61232.241      87120        
    232000   232000         2107.5237      295.13949      9792.5089      2949.8177      12742.327      61014.14       87120        
    232100   232100         2108.295       297.68299      9788.659       2975.2392      12763.898      61129.034      87120        
    232200   232200         2109.0689      299.4932       9811.3474      2993.3315      12804.679      61111.378      87120        
    232300   232300         2109.8353      299.20794      9835.1107      2990.4804      12825.591      61135.246      87120        
    232400   232400         2110.613       305.07425      9730.2347      3049.1122      12779.347      60852.305      87120        
    232500   232500         2111.4027      294.16539      9725.7074      2940.0819      12665.789      60765.928      87120        
    232600   232600         2112.1752      293.19075      9744.1401      2930.3407      12674.481      60823.966      87120        
    232700   232700         2113.0115      296.89828      9763.3219      2967.3962      12730.718      60956.713      87120        
    232800   232800         2113.8289      303.18791      9741.9081      3030.2589      12772.167      60816.27       87120        
    232900   232900         2114.5973      297.5604       9789.6887      2974.0139      12763.703      60971.826      87120        
    233000   233000         2115.3651      300.75459      9758.1782      3005.9387      12764.117      60915.681      87120        
    233100   233100         2116.1148      296.43755      9778.521       2962.7913      12741.312      60937.797      87120        
    233200   233200         2116.879       297.13138      9789.9764      2969.726       12759.702      60958.534      87120        
    233300   233300         2117.6477      302.80218      9839.9296      3026.4037      12866.333      61245.709      87120        
    233400   233400         2118.4219      306.42164      9823.9843      3062.5789      12886.563      61222.904      87120        
    233500   233500         2119.1962      297.80087      9830.7743      2976.4173      12807.192      61208.634      87120        
    233600   233600         2119.9689      299.81758      9810.3608      2996.5736      12806.934      61251.262      87120        
    233700   233700         2120.7434      306.01765      9781.3143      3058.5411      12839.855      61038.085      87120        
    233800   233800         2121.516       297.75379      9861.6968      2975.9467      12837.644      61269.189      87120        
    233900   233900         2122.2972      302.00556      9816.4801      3018.4417      12834.922      61181.339      87120        
    234000   234000         2123.0653      302.19309      9783.5817      3020.316       12803.898      61027.515      87120        
    234100   234100         2123.8414      296.78785      9748.9538      2966.2924      12715.246      60870.757      87120        
    234200   234200         2124.6213      298.26477      9732.1108      2981.0539      12713.165      60869.981      87120        
    234300   234300         2125.3885      304.12216      9751.6542      3039.5964      12791.251      60877.122      87120        
    234400   234400         2126.1694      307.3075       9727.1971      3071.4327      12798.63       60831.798      87120        
    234500   234500         2126.934       303.50502      9725.6784      3033.4283      12759.107      60809.796      87120        
    234600   234600         2127.7119      297.96355      9770.3534      2978.0432      12748.397      60893.313      87120        
    234700   234700         2128.4793      303.76276      9723.3656      3036.0044      12759.37       60755.685      87120        
    234800   234800         2129.2597      299.90819      9743.1931      2997.4792      12740.672      60829.219      87120        
    234900   234900         2130.0269      285.75798      9823.6054      2856.0528      12679.658      61063.025      87120        
    235000   235000         2130.8056      293.06566      9843.5105      2929.0905      12772.601      61215.888      87120        
    235100   235100         2131.5699      304.98404      9793.823       3048.2106      12842.034      61045.331      87120        
    235200   235200         2132.3364      300.55845      9801.2515      3003.9784      12805.23       61057.973      87120        
    235300   235300         2133.115       296.71453      9803.6101      2965.5597      12769.17       61054.048      87120        
    235400   235400         2133.8951      297.37952      9813.4483      2972.206       12785.654      61073.283      87120        
    235500   235500         2134.6752      304.14451      9803.5752      3039.8197      12843.395      60961.436      87120        
    235600   235600         2135.4441      305.70105      9777.0163      3055.3768      12832.393      61031.22       87120        
    235700   235700         2136.2185      296.29296      9730.6216      2961.3463      12691.968      60789.809      87120        
    235800   235800         2136.9838      292.81401      9764.7373      2926.5753      12691.313      60778.961      87120        
    235900   235900         2137.7637      301.11733      9735.3017      3009.5641      12744.866      60811.169      87120        
    236000   236000         2138.5475      299.85424      9735.7668      2996.94        12732.707      60754.19       87120        
    236100   236100         2139.3122      294.91281      9750.6925      2947.5521      12698.245      60746.179      87120        
    236200   236200         2140.0827      294.5732       9732.5612      2944.1578      12676.719      60725.177      87120        
    236300   236300         2140.8446      303.59947      9699.0827      3034.3723      12733.455      60608.749      87120        
    236400   236400         2141.6244      304.25301      9751.1285      3040.9042      12792.033      60838.165      87120        
    236500   236500         2142.4108      299.83739      9759.6612      2996.7716      12756.433      60844.912      87120        
    236600   236600         2143.195       294.51736      9758.5533      2943.5997      12702.153      60891.893      87120        
    236700   236700         2143.9743      295.6559       9776.9562      2954.979       12731.935      60959.095      87120        
    236800   236800         2144.7601      303.5698       9750.1774      3034.0757      12784.253      60902.743      87120        
    236900   236900         2145.5426      301.17834      9798.6271      3010.174       12808.801      61074.082      87120        
    237000   237000         2146.3284      298.35616      9809.7878      2981.9672      12791.755      61100.245      87120        
    237100   237100         2147.105       299.28882      9751.1685      2991.2888      12742.457      60841.721      87120        
    237200   237200         2147.8813      295.89774      9779.8625      2957.3961      12737.259      60973.633      87120        
    237300   237300         2148.6612      299.41304      9800.9436      2992.5303      12793.474      61058.947      87120        
    237400   237400         2149.4474      303.66894      9785.0748      3035.0667      12820.141      60941.058      87120        
    237500   237500         2150.2233      303.08883      9749.434       3029.2687      12778.703      60850.873      87120        
    237600   237600         2151.0036      297.24904      9678.3979      2970.9019      12649.3        60613.92       87120        
    237700   237700         2151.7785      294.08143      9692.9032      2939.2427      12632.146      60592.383      87120        
    237800   237800         2152.5588      295.58968      9752.8857      2954.3172      12707.203      60842.317      87120        
    237900   237900         2153.3235      300.94739      9739.2044      3007.8657      12747.07       60817.005      87120        
    238000   238000         2154.0903      304.20641      9747.8172      3040.4384      12788.256      60815.382      87120        
    238100   238100         2154.8646      304.48194      9716.5368      3043.1923      12759.729      60690.168      87120        
    238200   238200         2155.6306      292.91456      9750.3334      2927.5803      12677.914      60802.119      87120        
    238300   238300         2156.4072      297.71207      9741.5867      2975.5297      12717.116      60762.72       87120        
    238400   238400         2157.1843      301.00756      9765.5274      3008.467       12773.994      60886.173      87120        
    238500   238500         2157.9635      298.0378       9819.9588      2978.7854      12798.744      61128.634      87120        
    238600   238600         2158.7305      301.31287      9804.7052      3011.5185      12816.224      61080.078      87120        
    238700   238700         2159.5141      300.0605       9817.4736      2999.0015      12816.475      61120.245      87120        
    238800   238800         2160.2813      301.03167      9794.6485      3008.708       12803.357      61058.601      87120        
    238900   238900         2161.044       298.77219      9796.8373      2986.1253      12782.963      60997.753      87120        
    239000   239000         2161.8111      300.06778      9756.2228      2999.0743      12755.297      60890.868      87120        
    239100   239100         2162.5779      295.3231       9773.7399      2951.6529      12725.393      60871.299      87120        
    239200   239200         2163.3353      301.53115      9751.7249      3013.7001      12765.425      60788.435      87120        
    239300   239300         2164.0915      301.67169      9742.2753      3015.1047      12757.38       60719.007      87120        
    239400   239400         2164.8613      300.01464      9741.0707      2998.5431      12739.614      60710.547      87120        
    239500   239500         2165.6182      295.71625      9740.8235      2955.5822      12696.406      60701.267      87120        
    239600   239600         2166.3917      301.50351      9730.531       3013.4239      12743.955      60773.581      87120        
    239700   239700         2167.1566      303.84256      9741.3714      3036.8019      12778.173      60796.262      87120        
    239800   239800         2167.9336      296.89813      9734.0776      2967.3947      12701.472      60698.951      87120        
    239900   239900         2168.7015      296.61924      9727.4196      2964.6073      12692.027      60785.398      87120        
    240000   240000         2169.4699      297.84698      9792.0344      2976.8782      12768.913      61060.601      87120        
    240100   240100         2170.2272      307.1593       9757.2609      3069.9516      12827.212      60977.235      87120        
    240200   240200         2170.999       304.61046      9774.9367      3044.4768      12819.413      60966.558      87120        
    240300   240300         2171.758       297.95988      9797.7125      2978.0065      12775.719      61019.896      87120        
    240400   240400         2172.5235      296.49622      9796.7492      2963.3778      12760.127      61057.555      87120        
    240500   240500         2173.2889      305.19168      9756.8012      3050.2859      12807.087      60916.221      87120        
    240600   240600         2174.0632      304.19272      9794.6252      3040.3016      12834.927      61047.225      87120        
    240700   240700         2174.8419      297.98404      9789.5894      2978.248       12767.837      60956.969      87120        
    240800   240800         2175.6021      289.40137      9816.354       2892.4672      12708.821      61017.083      87120        
    240900   240900         2176.3774      300.60326      9785.0455      3004.4262      12789.472      61000.111      87120        
    241000   241000         2177.142       303.08313      9789.5008      3029.2117      12818.712      60940.126      87120        
    241100   241100         2177.9117      302.53039      9785.4716      3023.6872      12809.159      60915.96       87120        
    241200   241200         2178.6746      295.922        9775.6959      2957.6386      12733.334      60895.966      87120        
    241300   241300         2179.4407      292.70858      9764.6629      2925.5216      12690.185      60809.84       87120        
    241400   241400         2180.2267      298.49631      9792.0765      2983.368       12775.444      61047.278      87120        
    241500   241500         2180.9958      299.96905      9803.0713      2998.0875      12801.159      61110.356      87120        
    241600   241600         2181.7741      301.468        9786.2218      3013.069       12799.291      60938.736      87120        
    241700   241700         2182.5545      301.9433       9811.854       3017.8194      12829.673      61139.776      87120        
    241800   241800         2183.3236      303.71906      9804.7607      3035.5675      12840.328      61078.985      87120        
    241900   241900         2184.1036      299.47893      9752.6187      2993.1889      12745.808      60882.829      87120        
    242000   242000         2184.8752      296.70511      9761.5186      2965.4656      12726.984      60926.5        87120        
    242100   242100         2185.6435      303.38569      9741.0754      3032.2356      12773.311      60849.595      87120        
    242200   242200         2186.4178      298.71784      9799.0838      2985.5821      12784.666      61003.821      87120        
    242300   242300         2187.2068      311.37584      9765.6312      3112.0944      12877.726      60910.345      87120        
    242400   242400         2187.974       301.62959      9857.3472      3014.684       12872.031      61197.013      87120        
    242500   242500         2188.7486      296.98175      9803.7638      2968.2304      12771.994      60950.082      87120        
    242600   242600         2189.5241      300.04596      9783.7379      2998.8562      12782.594      60945.337      87120        
    242700   242700         2190.2853      298.50567      9806.214       2983.4616      12789.676      61016.931      87120        
    242800   242800         2191.0621      306.35548      9741.388       3061.9176      12803.306      60749.572      87120        
    242900   242900         2191.8355      300.89611      9756.5786      3007.3532      12763.932      60863.049      87120        
    243000   243000         2192.5966      288.62409      9798.0715      2884.6985      12682.77       60916.194      87120        
    243100   243100         2193.3724      300.2038       9720.9337      3000.4337      12721.367      60626.249      87120        
    243200   243200         2194.1324      303.64962      9767.4141      3034.8736      12802.288      60895.499      87120        
    243300   243300         2194.9019      309.20194      9727.2195      3090.3671      12817.587      60770.807      87120        
    243400   243400         2195.6599      293.14896      9737.0158      2929.923       12666.939      60770.631      87120        
    243500   243500         2196.4169      298.06135      9724.8845      2979.0207      12703.905      60774.045      87120        
    243600   243600         2197.1764      303.34756      9774.2434      3031.8545      12806.098      60933.432      87120        
    243700   243700         2197.9355      305.77864      9757.1682      3056.1524      12813.321      60869.352      87120        
    243800   243800         2198.7103      295.90002      9798.9262      2957.4189      12756.345      61054.323      87120        
    243900   243900         2199.4715      297.46963      9781.8873      2973.1067      12754.994      60978.096      87120        
    244000   244000         2200.238       302.88416      9767.1803      3027.223       12794.403      60977.697      87120        
    244100   244100         2201.0083      300.47871      9850.8888      3003.1814      12854.07       61247.516      87120        
    244200   244200         2201.776       311.70577      9805.5543      3115.3919      12920.946      61105.209      87120        
    244300   244300         2202.5543      299.08023      9828.3373      2989.204       12817.541      61173.3        87120        
    244400   244400         2203.3182      298.89108      9776.6154      2987.3135      12763.929      60972.752      87120        
    244500   244500         2204.079       295.90746      9793.8759      2957.4933      12751.369      60998.858      87120        
    244600   244600         2204.843       306.32878      9747.2466      3061.6508      12808.897      60894.894      87120        
    244700   244700         2205.6078      307.36114      9761.0104      3071.9689      12832.979      60885.783      87120        
    244800   244800         2206.39        301.00327      9741.5451      3008.4242      12749.969      60776.101      87120        
    244900   244900         2207.1566      297.14273      9697.3209      2969.8394      12667.16       60619.065      87120        
    245000   245000         2207.9237      296.67943      9730.6737      2965.2089      12695.883      60743.985      87120        
    245100   245100         2208.6912      301.70518      9774.6068      3015.4395      12790.046      60946.645      87120        
    245200   245200         2209.446       306.88366      9753.5558      3067.1966      12820.752      60878.23       87120        
    245300   245300         2210.2098      301.3985       9753.9512      3012.3743      12766.326      60838.236      87120        
    245400   245400         2210.9713      298.44003      9734.5028      2982.8054      12717.308      60772.122      87120        
    245500   245500         2211.7316      298.19627      9720.7899      2980.3691      12701.159      60749.868      87120        
    245600   245600         2212.5024      297.8156       9779.3103      2976.5645      12755.875      60927.919      87120        
    245700   245700         2213.2602      311.47559      9756.7969      3113.0914      12869.888      60871.334      87120        
    245800   245800         2214.0146      308.10968      9743.8945      3079.4503      12823.345      60888.95       87120        
    245900   245900         2214.7698      298.71688      9778.798       2985.5725      12764.37       60996.961      87120        
    246000   246000         2215.532       300.46858      9753.9884      3003.0802      12757.069      60937.373      87120        
    246100   246100         2216.2896      297.01823      9801.866       2968.595       12770.461      61084.755      87120        
    246200   246200         2217.0431      303.07486      9803.9763      3029.129       12833.105      61052.655      87120        
    246300   246300         2217.8006      307.55231      9805.6702      3073.8796      12879.55       60973.294      87120        
    246400   246400         2218.5572      300.4767       9812.5087      3003.1613      12815.67       61066.214      87120        
    246500   246500         2219.312       296.90437      9801.2948      2967.4571      12768.752      61007.165      87120        
    246600   246600         2220.067       299.08454      9772.2446      2989.2471      12761.492      60906.263      87120        
    246700   246700         2220.8223      299.45442      9750.2405      2992.9439      12743.184      60831.461      87120        
    246800   246800         2221.5747      299.0364       9737.3161      2988.766       12726.082      60789.166      87120        
    246900   246900         2222.3385      300.74567      9761.9549      3005.8495      12767.804      60809.221      87120        
    247000   247000         2223.0955      304.89649      9801.8637      3047.3356      12849.199      60991.118      87120        
    247100   247100         2223.8494      308.16717      9753.3129      3080.0249      12833.338      60809.106      87120        
    247200   247200         2224.6189      295.60044      9794.546       2954.4248      12748.971      60952.643      87120        
    247300   247300         2225.382       298.54829      9742.0739      2983.8875      12725.961      60800.365      87120        
    247400   247400         2226.154       301.16234      9749.7025      3010.014       12759.716      60803.008      87120        
    247500   247500         2226.9114      304.22041      9744.6667      3040.5783      12785.245      60735.411      87120        
    247600   247600         2227.6733      301.84251      9739.6844      3016.8121      12756.497      60773.031      87120        
    247700   247700         2228.4321      294.1777       9742.2674      2940.205       12682.472      60761.607      87120        
    247800   247800         2229.1997      296.70541      9734.6799      2965.4686      12700.148      60732.44       87120        
    247900   247900         2229.9565      301.70236      9772.4016      3015.4113      12787.813      60919.184      87120        
    248000   248000         2230.7257      302.72974      9763.0224      3025.6797      12788.702      60865.785      87120        
    248100   248100         2231.4766      297.45329      9764.4161      2972.9434      12737.359      60821.701      87120        
    248200   248200         2232.2286      299.20634      9710.7967      2990.4645      12701.261      60704.252      87120        
    248300   248300         2232.9803      296.89417      9750.3946      2967.3551      12717.75       60739.821      87120        
    248400   248400         2233.7479      307.58124      9736.2847      3074.1687      12810.453      60697.298      87120        
    248500   248500         2234.5033      301.57912      9743.5461      3014.1796      12757.726      60782.415      87120        
    248600   248600         2235.2591      297.84449      9734.5581      2976.8533      12711.411      60719.534      87120        
    248700   248700         2236.0253      298.63613      9748.1162      2984.7654      12732.882      60786.873      87120        
    248800   248800         2236.7822      307.57873      9741.1907      3074.1436      12815.334      60862.516      87120        
    248900   248900         2237.538       309.11223      9813.6192      3089.4704      12903.09       61100.413      87120        
    249000   249000         2238.3006      301.27924      9771.0566      3011.1824      12782.239      60887.191      87120        
    249100   249100         2239.0616      293.26299      9819.9888      2931.0627      12751.051      61070.576      87120        
    249200   249200         2239.8231      301.19365      9817.4604      3010.327       12827.787      60993.614      87120        
    249300   249300         2240.5822      306.62694      9772.5442      3064.6308      12837.175      60903.886      87120        
    249400   249400         2241.3456      296.77828      9805.7668      2966.1968      12771.964      61059.901      87120        
    249500   249500         2242.1078      298.28773      9775.9824      2981.2833      12757.266      60892.781      87120        
    249600   249600         2242.8565      305.33462      9756.5093      3051.7145      12808.224      60846.667      87120        
    249700   249700         2243.61        301.3254       9798.2164      3011.6437      12809.86       60988.462      87120        
    249800   249800         2244.3661      299.52047      9708.3178      2993.6041      12701.922      60597.368      87120        
    249900   249900         2245.1246      291.03876      9751.1627      2908.8324      12659.995      60785.755      87120        
    250000   250000         2245.8864      300.35474      9717.9486      3001.9423      12719.891      60669.502      87120        
    250100   250100         2246.6366      301.07242      9753.1652      3009.1153      12762.281      60754.587      87120        
    250200   250200         2247.3861      300.33151      9784.0101      3001.7102      12785.72       60917.854      87120        
    250300   250300         2248.1375      299.17746      9792.592       2990.1758      12782.768      60945.872      87120        
    250400   250400         2248.8887      290.33074      9824.2093      2901.7559      12725.965      60990.631      87120        
    250500   250500         2249.6486      294.65743      9771.9085      2944.9997      12716.908      60917.995      87120        
    250600   250600         2250.3882      303.77978      9799.5377      3036.1745      12835.712      61037.876      87120        
    250700   250700         2251.1411      306.00957      9793.7467      3058.4604      12852.207      61009.746      87120        
    250800   250800         2251.8925      299.78246      9785.2003      2996.2226      12781.423      60959.997      87120        
    250900   250900         2252.6437      295.61404      9780.5844      2954.5607      12735.145      60884.686      87120        
    251000   251000         2253.3979      296.5595       9802.4424      2964.0102      12766.453      60981.663      87120        
    251100   251100         2254.1465      305.68661      9804.5382      3055.2325      12859.771      61064.445      87120        
    251200   251200         2254.8909      304.26115      9827.0887      3040.9856      12868.074      61094.894      87120        
    251300   251300         2255.648       300.49929      9789.7758      3003.3871      12793.163      60936.818      87120        
    251400   251400         2256.403       295.47439      9756.4731      2953.1649      12709.638      60797.283      87120        
    251500   251500         2257.1538      293.12612      9779.0302      2929.6947      12708.725      60834.995      87120        
    251600   251600         2257.9038      309.7599       9692.1803      3095.9436      12788.124      60640.085      87120        
    251700   251700         2258.6544      302.31588      9724.6914      3021.5433      12746.235      60699.314      87120        
    251800   251800         2259.4059      297.27183      9720.9507      2971.1297      12692.08       60674.209      87120        
    251900   251900         2260.1557      300.42064      9693.0747      3002.6009      12695.676      60519.328      87120        
    252000   252000         2260.9078      305.1546       9674.0491      3049.9153      12723.964      60510.915      87120        
    252100   252100         2261.6648      295.17433      9738.2552      2950.1659      12688.421      60741.941      87120        
    252200   252200         2262.4113      293.74648      9684.1103      2935.8951      12620.005      60577.018      87120        
    252300   252300         2263.1599      297.9482       9709.3617      2977.8898      12687.251      60723.079      87120        
    252400   252400         2263.907       302.06622      9727.0208      3019.048       12746.069      60701.253      87120        
    252500   252500         2264.6591      299.25975      9742.0594      2990.9983      12733.058      60787.723      87120        
    252600   252600         2265.4126      297.0249       9770.0211      2968.6617      12738.683      60920.412      87120        
    252700   252700         2266.1641      297.43383      9763.2055      2972.7489      12735.954      60903.538      87120        
    252800   252800         2266.9147      298.02815      9763.9651      2978.6889      12742.654      60956.964      87120        
    252900   252900         2267.6695      302.74665      9779.3578      3025.8487      12805.206      60978.085      87120        
    253000   253000         2268.4326      307.16578      9754.4229      3070.0163      12824.439      60871.97       87120        
    253100   253100         2269.1841      297.92236      9759.3629      2977.6315      12736.994      60872.032      87120        
    253200   253200         2269.9319      293.49489      9751.204       2933.3805      12684.585      60827.255      87120        
    253300   253300         2270.6811      295.83459      9742.0188      2956.765       12698.784      60723.12       87120        
    253400   253400         2271.4295      304.91488      9669.086       3047.5194      12716.605      60485.402      87120        
    253500   253500         2272.1756      294.28679      9772.3928      2941.2952      12713.688      60871.98       87120        
    253600   253600         2272.9252      300.62471      9768.5897      3004.6406      12773.23       60850.426      87120        
    253700   253700         2273.6832      305.08453      9759.0445      3049.2149      12808.259      60847.718      87120        
    253800   253800         2274.425       302.60207      9720.6015      3024.4037      12745.005      60701.281      87120        
    253900   253900         2275.1713      301.91339      9715.7212      3017.5205      12733.242      60704.355      87120        
    254000   254000         2275.9338      302.08967      9675.227       3019.2823      12694.509      60618.908      87120        
    254100   254100         2276.6765      295.95956      9707.0464      2958.014       12665.06       60706.97       87120        
    254200   254200         2277.4258      295.35828      9766.8722      2952.0045      12718.877      60912.33       87120        
    254300   254300         2278.1701      306.94964      9745.2999      3067.856       12813.156      60838.295      87120        
    254400   254400         2278.93        304.20555      9784.858       3040.4298      12825.288      60992.258      87120        
    254500   254500         2279.6839      299.05475      9831.2669      2988.9493      12820.216      61172.152      87120        
    254600   254600         2280.4424      299.31772      9810.149       2991.5777      12801.727      61138.492      87120        
    254700   254700         2281.201       294.35555      9808.6115      2941.9825      12750.594      61069.861      87120        
    254800   254800         2281.9481      304.19494      9743.9118      3040.3239      12784.236      60868.405      87120        
    254900   254900         2282.7028      305.41578      9792.5911      3052.5257      12845.117      61084.364      87120        
    255000   255000         2283.461       303.33017      9768.4503      3031.6808      12800.131      60916.596      87120        
    255100   255100         2284.2001      293.38758      9724.3666      2932.308       12656.675      60680.368      87120        
    255200   255200         2284.9414      294.40501      9733.4266      2942.4768      12675.903      60715.275      87120        
    255300   255300         2285.6688      300.62321      9740.7656      3004.6256      12745.391      60803.08       87120        
    255400   255400         2286.3945      303.11329      9724.2754      3029.5131      12753.788      60769.417      87120        
    255500   255500         2287.1329      300.33137      9706.6759      3001.7088      12708.385      60684.44       87120        
    255600   255600         2287.8728      297.92049      9695.5125      2977.6128      12673.125      60555.39       87120        
    255700   255700         2288.6145      305.90084      9714.7516      3057.3737      12772.125      60634.196      87120        
    255800   255800         2289.3443      310.73716      9730.0599      3105.7111      12835.771      60656.929      87120        
    255900   255900         2290.088       298.65791      9775.5464      2984.9831      12760.53       60837.773      87120        
    256000   256000         2290.8307      298.57595      9755.561       2984.164       12739.725      60808.247      87120        
    256100   256100         2291.5691      300.18231      9746.8484      3000.219       12747.067      60758.091      87120        
    256200   256200         2292.3092      299.38855      9767.4468      2992.2856      12759.732      60899.425      87120        
    256300   256300         2293.0482      296.58449      9741.738       2964.2599      12705.998      60773.077      87120        
    256400   256400         2293.7888      298.19449      9716.928       2980.3513      12697.279      60680.873      87120        
    256500   256500         2294.5282      303.23001      9771.1085      3030.6796      12801.788      60914.937      87120        
    256600   256600         2295.2727      304.81997      9796.8602      3046.5708      12843.431      60964.884      87120        
    256700   256700         2296.0204      300.17394      9820.4769      3000.1353      12820.612      61091.384      87120        
    256800   256800         2296.7696      299.4688       9810.7006      2993.0877      12803.788      61136.61       87120        
    256900   256900         2297.5315      298.7927       9813.6783      2986.3303      12800.009      61090.026      87120        
    257000   257000         2298.2839      305.03111      9774.8911      3048.6811      12823.572      61004.974      87120        
    257100   257100         2299.0273      308.76395      9781.7405      3085.9895      12867.73       61003.854      87120        
    257200   257200         2299.7667      298.09566      9803.9609      2979.3636      12783.325      60945.603      87120        
    257300   257300         2300.5052      298.76563      9742.5354      2986.0597      12728.595      60779.029      87120        
    257400   257400         2301.2448      298.98947      9741.6298      2988.297       12729.927      60772.129      87120        
    257500   257500         2301.9853      305.27185      9716.5866      3051.0872      12767.674      60660.132      87120        
    257600   257600         2302.7275      311.12742      9714.6025      3109.6116      12824.214      60726.322      87120        
    257700   257700         2303.4791      299.79441      9719.7086      2996.342       12716.051      60700.493      87120        
    257800   257800         2304.2265      292.14157      9735.1926      2919.8545      12655.047      60663.042      87120        
    257900   257900         2304.9752      301.31668      9697.6554      3011.5566      12709.212      60597.725      87120        
    258000   258000         2305.7327      305.73771      9718.7289      3055.7432      12774.472      60663.872      87120        
    258100   258100         2306.4737      300.61144      9734.2922      3004.508       12738.8        60659.354      87120        
    258200   258200         2307.2125      296.099        9778.4441      2959.4077      12737.852      60912.46       87120        
    258300   258300         2307.9514      300.62662      9748.8069      3004.6596      12753.467      60804.428      87120        
    258400   258400         2308.6913      302.17328      9732.2801      3020.118       12752.398      60660.392      87120        
    258500   258500         2309.4195      297.04205      9756.032       2968.8331      12724.865      60832.345      87120        
    258600   258600         2310.1673      289.90594      9780.5978      2897.5102      12678.108      60941.313      87120        
    258700   258700         2310.9083      298.98152      9743.8771      2988.2175      12732.095      60770.261      87120        
    258800   258800         2311.6573      304.91104      9775.9709      3047.481       12823.452      60983.56       87120        
    258900   258900         2312.404       298.77744      9831.6161      2986.1778      12817.794      61147.007      87120        
    259000   259000         2313.1541      296.81285      9811.982       2966.5423      12778.524      61000.764      87120        
    259100   259100         2313.8966      296.47274      9776.7585      2963.1431      12739.902      60909.56       87120        
    259200   259200         2314.6411      301.40495      9753.5047      3012.4389      12765.944      60812.687      87120        
    259300   259300         2315.3857      306.6068       9799.2803      3064.4295      12863.71       60942.594      87120        
    259400   259400         2316.1372      307.88534      9706.8046      3077.2081      12784.013      60591.861      87120        
    259500   259500         2316.8741      296.88581      9716.6202      2967.2716      12683.892      60534.061      87120        
    259600   259600         2317.6109      297.44047      9681.2273      2972.8152      12654.042      60418.184      87120        
    259700   259700         2318.3508      300.82203      9695.0451      3006.6128      12701.658      60510.968      87120        
    259800   259800         2319.1003      305.70079      9728.6253      3055.3743      12784          60637.183      87120        
    259900   259900         2319.8468      304.5052       9692.5831      3043.4247      12736.008      60472.302      87120        
    260000   260000         2320.5994      294.82598      9687.0915      2946.6843      12633.776      60391.901      87120        
    260100   260100         2321.3416      298.21634      9677.4229      2980.5698      12657.993      60400.869      87120        
    260200   260200         2322.0804      301.80407      9716.2633      3016.4279      12732.691      60538.901      87120        
    260300   260300         2322.8332      308.31948      9724.8289      3081.5472      12806.376      60701.03       87120        
    260400   260400         2323.5803      293.96793      9789.8247      2938.1083      12727.933      60895.186      87120        
    260500   260500         2324.309       295.79215      9760.9475      2956.3408      12717.288      60759.168      87120        
    260600   260600         2325.0524      302.1582       9751.8383      3019.9673      12771.806      60782.079      87120        
    260700   260700         2325.7929      302.39435      9781.3555      3022.3275      12803.683      60886.271      87120        
    260800   260800         2326.5353      300.3907       9756.3461      3002.3017      12758.648      60777.472      87120        
    260900   260900         2327.2743      291.75381      9765.4052      2915.979       12681.384      60827.058      87120        
    261000   261000         2328.0131      300.32147      9754.2432      3001.6098      12755.853      60849.152      87120        
    261100   261100         2328.7491      305.1445       9769.5864      3049.8144      12819.401      60793.467      87120        
    261200   261200         2329.499       300.69094      9755.5982      3005.3026      12760.901      60746.195      87120        
    261300   261300         2330.2397      295.55481      9752.2099      2953.9687      12706.179      60758.839      87120        
    261400   261400         2330.9875      298.98434      9734.8776      2988.2457      12723.123      60714.329      87120        
    261500   261500         2331.7277      306.41853      9747.2897      3062.5479      12809.838      60803.415      87120        
    261600   261600         2332.4681      302.53414      9778.698       3023.7247      12802.423      60936.997      87120        
    261700   261700         2333.2165      298.01756      9721.5867      2978.583       12700.17       60618.414      87120        
    261800   261800         2333.9528      302.15904      9660.3719      3019.9757      12680.348      60426.08       87120        
    261900   261900         2334.695       299.26677      9697.0881      2991.0685      12688.157      60541.621      87120        
    262000   262000         2335.437       295.28634      9750.2417      2951.2854      12701.527      60689.138      87120        
    262100   262100         2336.1664      307.92716      9684.2087      3077.6261      12761.835      60457.616      87120        
    262200   262200         2336.8838      303.61165      9719.5048      3034.494       12753.999      60627.708      87120        
    262300   262300         2337.6101      298.31647      9683.3717      2981.5705      12664.942      60456.927      87120        
    262400   262400         2338.3387      295.98882      9715.2369      2958.3064      12673.543      60629.694      87120        
    262500   262500         2339.0607      306.18222      9697.8301      3060.1859      12758.016      60602.888      87120        
    262600   262600         2339.8011      299.90971      9795.1615      2997.4944      12792.656      60921.484      87120        
    262700   262700         2340.5313      297.78835      9800.4409      2976.2922      12776.733      61049.895      87120        
    262800   262800         2341.2597      300.46017      9783.8195      3002.996       12786.816      60988.286      87120        
    262900   262900         2342.0011      301.54314      9785.5016      3013.82        12799.322      61008.567      87120        
    263000   263000         2342.7479      303.15369      9780.6781      3029.9168      12810.595      61042.935      87120        
    263100   263100         2343.4878      296.2469       9831.9173      2960.8859      12792.803      61160.861      87120        
    263200   263200         2344.217       296.21792      9767.6737      2960.5962      12728.27       60864.791      87120        
    263300   263300         2344.953       291.52877      9788.11        2913.7298      12701.84       60957.276      87120        
    263400   263400         2345.6911      305.93548      9709.615       3057.7199      12767.335      60693.346      87120        
    263500   263500         2346.4281      305.03843      9723.3428      3048.7542      12772.097      60661.442      87120        
    263600   263600         2347.1674      298.99747      9736.0084      2988.3769      12724.385      60776.942      87120        
    263700   263700         2347.8936      299.36566      9688.1853      2992.0568      12680.242      60532.712      87120        
    263800   263800         2348.6296      302.62479      9741.8505      3024.6307      12766.481      60746.639      87120        
    263900   263900         2349.3691      308.39505      9730.3111      3082.3025      12812.614      60784.062      87120        
    264000   264000         2350.1025      299.31         9721.8313      2991.5005      12713.332      60586.266      87120        
    264100   264100         2350.8235      297.04139      9703.3487      2968.8266      12672.175      60572.431      87120        
    264200   264200         2351.5605      300.37817      9696.3573      3002.1765      12698.534      60639.666      87120        
    264300   264300         2352.2982      307.94486      9704.7769      3077.803       12782.58       60595.084      87120        
    264400   264400         2353.0237      308.62688      9740.3936      3084.6196      12825.013      60730.868      87120        
    264500   264500         2353.7619      296.55294      9772.6896      2963.9446      12736.634      60919.522      87120        
    264600   264600         2354.5024      301.70606      9710.7908      3015.4483      12726.239      60663.453      87120        
    264700   264700         2355.2416      295.03801      9798.4388      2948.8034      12747.242      61018.093      87120        
    264800   264800         2355.9794      305.33518      9773.9147      3051.7201      12825.635      60904.265      87120        
    264900   264900         2356.7185      303.81693      9817.735       3036.5458      12854.281      61022.69       87120        
    265000   265000         2357.4493      293.01928      9803.6769      2928.6269      12732.304      61062.426      87120        
    265100   265100         2358.1836      296.55333      9761.8179      2963.9486      12725.766      60832.963      87120        
    265200   265200         2358.9198      297.98474      9785.5266      2978.255       12763.782      60918.703      87120        
    265300   265300         2359.6433      298.99262      9786.3109      2988.3284      12774.639      60934.884      87120        
    265400   265400         2360.3821      301.52293      9742.3865      3013.618       12756.005      60683.806      87120        
    265500   265500         2361.113       297.50296      9755.4974      2973.4398      12728.937      60768.428      87120        
    265600   265600         2361.8404      298.88916      9755.7222      2987.2944      12743.017      60748.521      87120        
    265700   265700         2362.5716      308.74349      9755.243       3085.785       12841.028      60673.689      87120        
    265800   265800         2363.3033      303.14438      9768.4253      3029.8239      12798.249      60729.64       87120        
    265900   265900         2364.0355      300.43639      9743.5511      3002.7584      12746.309      60664.618      87120        
    266000   266000         2364.7586      297.8698       9742.2646      2977.1062      12719.371      60704.734      87120        
    266100   266100         2365.4869      303.5332       9702.2844      3033.7099      12735.994      60586.687      87120        
    266200   266200         2366.207       304.97504      9740.7524      3048.1207      12788.873      60747.067      87120        
    266300   266300         2366.9426      302.90244      9773.1385      3027.4057      12800.544      60869.106      87120        
    266400   266400         2367.6793      295.68535      9784.3731      2955.2734      12739.646      60928.302      87120        
    266500   266500         2368.4049      296.95792      9784.8714      2967.9923      12752.864      60944.736      87120        
    266600   266600         2369.1409      304.29183      9776.5914      3041.2922      12817.884      60948.999      87120        
    266700   266700         2369.8753      301.89427      9823.9684      3017.3294      12841.298      61121.349      87120        
    266800   266800         2370.6165      297.19582      9780.8105      2970.37        12751.181      60943.674      87120        
    266900   266900         2371.3416      294.0422       9733.8871      2938.8507      12672.738      60698.962      87120        
    267000   267000         2372.0916      301.33706      9715.1728      3011.7603      12726.933      60694.764      87120        
    267100   267100         2372.8284      305.42773      9724.9989      3052.6451      12777.644      60704.863      87120        
    267200   267200         2373.5649      304.05777      9710.1227      3038.9529      12749.076      60571.345      87120        
    267300   267300         2374.2953      297.48233      9731.6404      2973.2336      12704.874      60729.487      87120        
    267400   267400         2375.0387      300.13976      9718.3257      2999.7937      12718.119      60655.559      87120        
    267500   267500         2375.7799      310.52085      9680.5703      3103.5492      12784.119      60473.902      87120        
    267600   267600         2376.5168      302.25567      9722.6511      3020.9415      12743.593      60674.281      87120        
    267700   267700         2377.2499      295.72858      9726.9248      2955.7054      12682.63       60655.948      87120        
    267800   267800         2377.9847      295.65798      9736.447       2954.9998      12691.447      60698.07       87120        
    267900   267900         2378.7212      299.91225      9786.1337      2997.5198      12783.654      60933.312      87120        
    268000   268000         2379.4497      308.79904      9772.348       3086.3402      12858.688      60917.9        87120        
    268100   268100         2380.181       295.49162      9812.8205      2953.3372      12766.158      60979.428      87120        
    268200   268200         2380.9216      299.34832      9743.0485      2991.8835      12734.932      60795.311      87120        
    268300   268300         2381.6534      303.20369      9726.0251      3030.4166      12756.442      60711.42       87120        
    268400   268400         2382.3987      300.45548      9797.1242      3002.9492      12800.073      60926.475      87120        
    268500   268500         2383.1415      301.68546      9819.6244      3015.2424      12834.867      61024.555      87120        
    268600   268600         2383.8939      300.3951       9790.7834      3002.3457      12793.129      60868.158      87120        
    268700   268700         2384.6482      291.4445       9788.3651      2912.8876      12701.253      60845.89       87120        
    268800   268800         2385.3959      296.12523      9751.9632      2959.6699      12711.633      60710.265      87120        
    268900   268900         2386.1428      302.69138      9733.1431      3025.2963      12758.439      60615.032      87120        
    269000   269000         2386.8836      301.71224      9738.9326      3015.51        12754.443      60652.683      87120        
    269100   269100         2387.616       302.0596       9719.2423      3018.9818      12738.224      60619.772      87120        
    269200   269200         2388.3646      297.68239      9765.0693      2975.2332      12740.302      60796.666      87120        
    269300   269300         2389.1296      300.77591      9760.214       3006.1518      12766.366      60752.623      87120        
    269400   269400         2389.871       303.45013      9820.0562      3032.8797      12852.936      60983.684      87120        
    269500   269500         2390.6116      304.37745      9794.4174      3042.1479      12836.565      60848.863      87120        
    269600   269600         2391.3439      303.26497      9696.848       3031.0291      12727.877      60500.9        87120        
    269700   269700         2392.0751      293.81292      9781.2183      2936.5591      12717.777      60823.316      87120        
    269800   269800         2392.8046      299.76156      9767.3295      2996.0137      12763.343      60784.587      87120        
    269900   269900         2393.538       303.10657      9785.2629      3029.4459      12814.709      60896.475      87120        
    270000   270000         2394.2717      304.79812      9793.5112      3046.3524      12839.864      60962.058      87120        
    270100   270100         2395.0019      300.67912      9794.7582      3005.1844      12799.943      60905.772      87120        
    270200   270200         2395.7283      294.9246       9826.4038      2947.67        12774.074      61022.525      87120        
    270300   270300         2396.4533      301.74574      9785.4794      3015.8449      12801.324      60895.579      87120        
    270400   270400         2397.1934      303.90191      9802.8652      3037.395       12840.26       60883.898      87120        
    270500   270500         2397.9214      302.2193       9770.3961      3020.578       12790.974      60753.72       87120        
    270600   270600         2398.6424      290.20631      9783.1931      2900.5122      12683.705      60784.3        87120        
    270700   270700         2399.3835      300.3465       9698.9428      3001.86        12700.803      60414.935      87120        
    270800   270800         2400.114       300.64527      9706.2811      3004.8461      12711.127      60473.629      87120        
    270900   270900         2400.83        299.92488      9711.3878      2997.6461      12709.034      60445.805      87120        
    271000   271000         2401.5543      302.51514      9698.1136      3023.5348      12721.648      60405.604      87120        
    271100   271100         2402.2818      300.5564       9722.4155      3003.9579      12726.373      60599.766      87120        
    271200   271200         2403.0166      298.43093      9707.9039      2982.7145      12690.618      60527.006      87120        
    271300   271300         2403.7595      297.21675      9697.8391      2970.5792      12668.418      60461.986      87120        
    271400   271400         2404.4929      300.85311      9731.7211      3006.9234      12738.644      60655.532      87120        
    271500   271500         2405.2197      307.94577      9730.2438      3077.8121      12808.056      60595.197      87120        
    271600   271600         2405.9489      299.19328      9733.5063      2990.334       12723.84       60621.914      87120        
    271700   271700         2406.6797      292.08027      9765.4788      2919.2419      12684.721      60744.045      87120        
    271800   271800         2407.4074      299.93754      9749.4467      2997.7726      12747.219      60723.55       87120        
    271900   271900         2408.1336      298.73331      9763.2665      2985.7367      12749.003      60714.612      87120        
    272000   272000         2408.8524      295.43684      9720.3264      2952.7896      12673.116      60566.852      87120        
    272100   272100         2409.576       291.28055      9739.9522      2911.2489      12651.201      60648.19       87120        
    272200   272200         2410.3055      298.0208       9756.031       2978.6154      12734.646      60815.257      87120        
    272300   272300         2411.0251      298.77911      9806.4653      2986.1945      12792.66       60920.201      87120        
    272400   272400         2411.7592      304.64234      9737.9539      3044.7954      12782.749      60692.975      87120        
    272500   272500         2412.4844      300.70022      9707.667       3005.3953      12713.062      60620.149      87120        
    272600   272600         2413.2136      292.21244      9716.5876      2920.5628      12637.15       60560.766      87120        
    272700   272700         2413.941       297.2442       9748.5759      2970.8536      12719.43       60624.727      87120        
    272800   272800         2414.6691      301.79446      9739.1199      3016.3318      12755.452      60646.702      87120        
    272900   272900         2415.4048      302.30733      9690.7141      3021.4578      12712.172      60452.916      87120        
    273000   273000         2416.1316      294.27262      9713.1124      2941.1537      12654.266      60495.533      87120        
    273100   273100         2416.8533      301.3456       9647.1975      3011.8457      12659.043      60289.592      87120        
    273200   273200         2417.5748      298.75783      9760.2534      2985.9818      12746.235      60657.493      87120        
    273300   273300         2418.2945      306.79762      9731.9088      3066.3367      12798.246      60585.132      87120        
    273400   273400         2419.018       300.9004       9705.1568      3007.396       12712.553      60409.383      87120        
    273500   273500         2419.7422      300.72945      9667.8331      3005.6874      12673.52       60292.532      87120        
    273600   273600         2420.4666      298.00822      9701.268       2978.4897      12679.758      60407.54       87120        
    273700   273700         2421.19        296.46298      9745.4232      2963.0456      12708.469      60548.473      87120        
    273800   273800         2421.914       295.35881      9730.2152      2952.0097      12682.225      60588.481      87120        
    273900   273900         2422.64        300.2323       9733.6688      3000.7185      12734.387      60591.112      87120        
    274000   274000         2423.369       305.51547      9775.5869      3053.5221      12829.109      60732.653      87120        
    274100   274100         2424.091       304.48855      9774.2676      3043.2584      12817.526      60784.589      87120        
    274200   274200         2424.8273      298.16935      9772.6915      2980.1001      12752.792      60764.532      87120        
    274300   274300         2425.5615      296.69796      9782.3165      2965.3941      12747.711      60804.961      87120        
    274400   274400         2426.2943      301.67206      9756.1289      3015.1085      12771.237      60796.86       87120        
    274500   274500         2427.0196      300.57108      9793.6164      3004.1046      12797.721      60818.907      87120        
    274600   274600         2427.7436      308.43025      9720.5508      3082.6543      12803.205      60632.201      87120        
    274700   274700         2428.4683      299.34187      9715.0316      2991.8191      12706.851      60590.848      87120        
    274800   274800         2429.1959      292.46673      9742.6118      2923.1044      12665.716      60666.428      87120        
    274900   274900         2429.9312      301.0997       9706.074       3009.3879      12715.462      60547.27       87120        
    275000   275000         2430.6613      300.71481      9723.5154      3005.5411      12729.056      60556.369      87120        
    275100   275100         2431.3827      301.16096      9691.1229      3010.0002      12701.123      60427.046      87120        
    275200   275200         2432.1034      296.7003       9717.4089      2965.4174      12682.826      60490.708      87120        
    275300   275300         2432.8369      298.11785      9747.466       2979.5854      12727.051      60638.347      87120        
    275400   275400         2433.557       311.77928      9740.4097      3116.1266      12856.536      60603.466      87120        
    275500   275500         2434.281       310.86501      9690.1241      3106.9888      12797.113      60477.006      87120        
    275600   275600         2435.0042      302.36974      9696.8727      3022.0816      12718.954      60481.298      87120        
    275700   275700         2435.7402      299.06966      9678.8943      2989.0984      12667.993      60406.559      87120        
    275800   275800         2436.4687      296.78304      9713.577       2966.2445      12679.821      60624.887      87120        
    275900   275900         2437.1955      302.363        9734.2221      3022.0142      12756.236      60722.839      87120        
    276000   276000         2437.9229      305.26219      9779.7181      3050.9906      12830.709      60875.785      87120        
    276100   276100         2438.6498      299.43875      9792.159       2992.7873      12784.946      60892.599      87120        
    276200   276200         2439.3924      295.45889      9744.6383      2953.01        12697.648      60720.157      87120        
    276300   276300         2440.1213      296.21383      9753.0508      2960.5553      12713.606      60809.861      87120        
    276400   276400         2440.8544      302.69954      9746.3347      3025.3778      12771.712      60768.11       87120        
    276500   276500         2441.5824      303.00766      9737.3959      3028.4574      12765.853      60696.59       87120        
    276600   276600         2442.3102      300.74473      9718.8537      3005.8402      12724.694      60651.052      87120        
    276700   276700         2443.0348      298.17134      9697.6863      2980.12        12677.806      60542.619      87120        
    276800   276800         2443.7604      294.42753      9716.039       2942.7019      12658.741      60579.045      87120        
    276900   276900         2444.4833      300.95244      9707.914       3007.9162      12715.83       60518.536      87120        
    277000   277000         2445.208       301.57821      9733.8152      3014.1705      12747.986      60569.399      87120        
    277100   277100         2445.9282      298.47067      9710.7664      2983.1117      12693.878      60493.587      87120        
    277200   277200         2446.6616      292.2742       9728.9172      2921.1802      12650.097      60551.774      87120        
    277300   277300         2447.3861      302.02372      9704.5643      3018.6232      12723.187      60511.01       87120        
    277400   277400         2448.1138      312.47835      9660.3718      3123.1137      12783.485      60373.38       87120        
    277500   277500         2448.8363      298.85575      9747.428       2986.9605      12734.388      60612.461      87120        
    277600   277600         2449.5797      297.83697      9754.6815      2976.7781      12731.46       60675.758      87120        
    277700   277700         2450.3034      298.7075       9748.7486      2985.4787      12734.227      60670.564      87120        
    277800   277800         2451.0285      295.87229      9773.1323      2957.1418      12730.274      60853.677      87120        
    277900   277900         2451.7641      302.02866      9766.2687      3018.6726      12784.941      60762.759      87120        
    278000   278000         2452.4869      306.88037      9758.1668      3067.1638      12825.331      60753.204      87120        
    278100   278100         2453.2063      298.5698       9758.3017      2984.1025      12742.404      60712.122      87120        
    278200   278200         2453.9267      295.96149      9744.6129      2958.0333      12702.646      60641.002      87120        
    278300   278300         2454.6475      302.0358       9718.7894      3018.744       12737.533      60666.91       87120        
    278400   278400         2455.3698      302.50826      9731.2719      3023.466       12754.738      60635.128      87120        
    278500   278500         2456.0877      301.13747      9761.1164      3009.7655      12770.882      60675.115      87120        
    278600   278600         2456.8086      296.83265      9740.6979      2966.7403      12707.438      60626.443      87120        
    278700   278700         2457.5449      292.2764       9732.0892      2921.2021      12653.291      60511.62       87120        
    278800   278800         2458.2808      303.83455      9653.3962      3036.7218      12690.118      60338.353      87120        
    278900   278900         2458.9992      304.55102      9682.1732      3043.8827      12726.056      60414.038      87120        
    279000   279000         2459.7384      302.83796      9705.278       3026.7613      12732.039      60495.971      87120        
    279100   279100         2460.4531      294.6709       9713.5893      2945.1343      12658.724      60520.192      87120        
    279200   279200         2461.1799      298.3613       9692.7603      2982.0185      12674.779      60465.57       87120        
    279300   279300         2461.9011      302.92415      9748.2365      3027.6227      12775.859      60721.368      87120        
    279400   279400         2462.6285      304.76324      9773.451       3046.0038      12819.455      60808.055      87120        
    279500   279500         2463.3663      304.76194      9734.9042      3045.9907      12780.895      60659.183      87120        
    279600   279600         2464.1027      295.17257      9794.3586      2950.1483      12744.507      60864.697      87120        
    279700   279700         2464.8342      298.38422      9764.5894      2982.2477      12746.837      60752.539      87120        
    279800   279800         2465.5729      299.54196      9779.518       2993.8189      12773.337      60854.394      87120        
    279900   279900         2466.2974      304.07094      9800.5542      3039.0845      12839.639      60918.607      87120        
    280000   280000         2467.0162      309.24641      9759.9082      3090.8115      12850.72       60773.188      87120        
    280100   280100         2467.7417      295.37696      9739.6541      2952.1911      12691.845      60608.732      87120        
    280200   280200         2468.4624      299.47908      9706.131       2993.1905      12699.321      60560.509      87120        
    280300   280300         2469.1835      301.36334      9720.8525      3012.023       12732.875      60603.109      87120        
    280400   280400         2469.9044      301.28981      9731.4527      3011.288       12742.741      60578.2        87120        
    280500   280500         2470.6272      297.95426      9719.8964      2977.9504      12697.847      60590.807      87120        
    280600   280600         2471.3467      291.77696      9694.2058      2916.2104      12610.416      60406.5        87120        
    280700   280700         2472.0676      296.84985      9696.3627      2966.9122      12663.275      60416.006      87120        
    280800   280800         2472.7919      304.15564      9701.7912      3039.931       12741.722      60550.789      87120        
    280900   280900         2473.5144      302.91058      9738.0877      3027.4871      12765.575      60617.323      87120        
    281000   281000         2474.2356      302.03856      9726.8205      3018.7715      12745.592      60632.86       87120        
    281100   281100         2474.9599      297.4471       9745.8403      2972.8814      12718.722      60737.976      87120        
    281200   281200         2475.6783      296.87585      9774.8966      2967.172       12742.069      60768.125      87120        
    281300   281300         2476.3992      299.13667      9768.0964      2989.7681      12757.865      60791.043      87120        
    281400   281400         2477.1191      303.0919       9757.3537      3029.2993      12786.653      60769.493      87120        
    281500   281500         2477.8523      302.02352      9762.4273      3018.6212      12781.048      60733.636      87120        
    281600   281600         2478.5752      296.71981      9775.2176      2965.6125      12740.83       60873.059      87120        
    281700   281700         2479.2995      294.06653      9806.0553      2939.0938      12745.149      60955.018      87120        
    281800   281800         2480.0275      303.84038      9786.6998      3036.7801      12823.48       60866.159      87120        
    281900   281900         2480.758       302.38307      9782.5949      3022.2147      12804.81       60850.697      87120        
    282000   282000         2481.4905      298.07535      9779.0278      2979.1606      12758.188      60783.577      87120        
    282100   282100         2482.2221      298.71144      9755.4779      2985.5181      12740.996      60700.056      87120        
    282200   282200         2482.9305      302.13886      9715.6706      3019.774       12735.445      60653.511      87120        
    282300   282300         2483.647       290.67493      9720.6525      2905.1959      12625.848      60568.325      87120        
    282400   282400         2484.3645      294.7527       9697.679       2945.9518      12643.631      60475.21       87120        
    282500   282500         2485.0831      303.95204      9702.4187      3037.8962      12740.315      60595.544      87120        
    282600   282600         2485.8104      304.25303      9702.5151      3040.9044      12743.42       60522.558      87120        
    282700   282700         2486.5267      293.71472      9752.677       2935.5776      12688.255      60664.279      87120        
    282800   282800         2487.2432      298.42885      9670.6742      2982.6937      12653.368      60509.701      87120        
    282900   282900         2487.9561      293.67555      9668.2071      2935.1861      12603.393      60407.632      87120        
    283000   283000         2488.6637      298.11068      9701.5043      2979.5137      12681.018      60517.757      87120        
    283100   283100         2489.3752      305.59728      9722.7891      3054.3397      12777.129      60616.606      87120        
    283200   283200         2490.0928      303.03495      9728.1746      3028.7301      12756.905      60645.951      87120        
    283300   283300         2490.8084      298.59505      9731.9958      2984.3548      12716.351      60657.324      87120        
    283400   283400         2491.5293      299.19452      9740.458       2990.3464      12730.804      60640.066      87120        
    283500   283500         2492.2532      302.89875      9773.3569      3027.3688      12800.726      60751.679      87120        
    283600   283600         2492.9739      312.71351      9800.5193      3125.464       12925.983      60895.883      87120        
    283700   283700         2493.6931      304.50578      9778.0385      3043.4305      12821.469      60875.568      87120        
    283800   283800         2494.4097      297.56289      9771.623       2974.0388      12745.662      60798.545      87120        
    283900   283900         2495.1164      301.37063      9709.1333      3012.0958      12721.229      60553.751      87120        
    284000   284000         2495.835       297.41937      9722.3109      2972.6043      12694.915      60639.671      87120        
    284100   284100         2496.5468      297.93351      9735.8821      2977.7429      12713.625      60692.674      87120        
    284200   284200         2497.2565      304.49105      9728.8114      3043.2834      12772.095      60591.114      87120        
    284300   284300         2497.971       305.89097      9729.8691      3057.275       12787.144      60681.255      87120        
    284400   284400         2498.6847      294.45416      9751.1976      2942.968       12694.166      60696.489      87120        
    284500   284500         2499.4117      293.27714      9723.8976      2931.2041      12655.102      60573.298      87120        
    284600   284600         2500.1282      303.09237      9730.3579      3029.304       12759.662      60655.076      87120        
    284700   284700         2500.841       309.75411      9747.7773      3095.8858      12843.663      60682.014      87120        
    284800   284800         2501.5538      301.83087      9767.7837      3016.6957      12784.479      60741.223      87120        
    284900   284900         2502.2721      297.82968      9760.9345      2976.7053      12737.64       60739.699      87120        
    285000   285000         2502.9957      295.68493      9753.8762      2955.2692      12709.145      60706.506      87120        
    285100   285100         2503.7065      300.04085      9742.6003      2998.8051      12741.405      60648.241      87120        
    285200   285200         2504.418       307.5106       9763.573       3073.4627      12837.036      60731.589      87120        
    285300   285300         2505.1398      307.07215      9739.1807      3069.0806      12808.261      60540.354      87120        
    285400   285400         2505.8501      302.15802      9709.8771      3019.9655      12729.843      60472.71       87120        
    285500   285500         2506.572       297.48674      9759.7387      2973.2776      12733.016      60644.829      87120        
    285600   285600         2507.3019      300.75483      9757.9188      3005.9411      12763.86       60680.016      87120        
    285700   285700         2508.0282      305.47099      9704.7839      3053.0775      12757.861      60521.535      87120        
    285800   285800         2508.7506      293.54587      9747.537       2933.89        12681.427      60629.037      87120        
    285900   285900         2509.4841      291.62838      9769.0077      2914.7254      12683.733      60714.21       87120        
    286000   286000         2510.1982      308.79509      9716.1146      3086.3007      12802.415      60615.108      87120        
    286100   286100         2510.9216      305.06659      9760.081       3049.0357      12809.117      60752.664      87120        
    286200   286200         2511.6483      296.18855      9803.6253      2960.3027      12763.928      60946.302      87120        
    286300   286300         2512.3635      297.80608      9748.0809      2976.4694      12724.55       60742.372      87120        
    286400   286400         2513.0821      296.30944      9754.2914      2961.5109      12715.802      60725.165      87120        
    286500   286500         2513.8152      306.02413      9733.8784      3058.6059      12792.484      60641.674      87120        
    286600   286600         2514.5494      309.23443      9759.8171      3090.6918      12850.509      60760.369      87120        
    286700   286700         2515.2709      297.81129      9766.0916      2976.5214      12742.613      60780.328      87120        
    286800   286800         2515.9895      300.5297       9724.0147      3003.691       12727.706      60667.397      87120        
    286900   286900         2516.7213      300.87817      9760.2247      3007.1739      12767.399      60743.369      87120        
    287000   287000         2517.4407      299.76246      9759.9237      2996.0227      12755.946      60749.717      87120        
    287100   287100         2518.1517      295.48847      9708.948       2953.3056      12662.254      60535.224      87120        
    287200   287200         2518.8652      288.07804      9742.5077      2879.2409      12621.749      60652.855      87120        
    287300   287300         2519.5964      302.17469      9706.0429      3020.1321      12726.175      60612.075      87120        
    287400   287400         2520.3235      297.59871      9778.1118      2974.3967      12752.509      60839.885      87120        
    287500   287500         2521.0613      301.93471      9746.4955      3017.7336      12764.229      60634.699      87120        
    287600   287600         2521.7834      300.97568      9715.1284      3008.1484      12723.277      60596.438      87120        
    287700   287700         2522.5035      294.56927      9704.8245      2944.1185      12648.943      60560.595      87120        
    287800   287800         2523.2325      299.70277      9711.9901      2995.4261      12707.416      60554.239      87120        
    287900   287900         2523.9598      305.14192      9754.646       3049.7886      12804.435      60797.941      87120        
    288000   288000         2524.6805      302.85084      9726.3901      3026.89        12753.28       60622.412      87120        
    288100   288100         2525.4077      299.3507       9695.2731      2991.9073      12687.18       60461.183      87120        
    288200   288200         2526.1286      294.39789      9739.13        2942.4056      12681.536      60659.299      87120        
    288300   288300         2526.8599      303.99575      9731.2465      3038.333       12769.58       60628.434      87120        
    288400   288400         2527.599       306.70216      9754.7677      3065.3826      12820.15       60734.574      87120        
    288500   288500         2528.3184      302.47296      9724.9942      3023.1132      12748.107      60607.837      87120        
    288600   288600         2529.0377      294.11139      9756.2268      2939.5422      12695.769      60626.011      87120        
    288700   288700         2529.7654      300.5519       9709.9918      3003.9129      12713.905      60539.068      87120        
    288800   288800         2530.478       305.83857      9704.5728      3056.7514      12761.324      60487.948      87120        
    288900   288900         2531.194       306.7948       9725.3639      3066.3085      12791.672      60542.327      87120        
    289000   289000         2531.9157      300.58559      9733.9319      3004.2496      12738.182      60569.757      87120        
    289100   289100         2532.6307      294.46444      9737.0562      2943.0708      12680.127      60598.09       87120        
    289200   289200         2533.3442      293.90599      9792.0834      2937.4893      12729.573      60746.923      87120        
    289300   289300         2534.0707      300.6409       9811.1126      3004.8024      12815.915      60860.145      87120        
    289400   289400         2534.7964      304.75225      9766.2437      3045.8939      12812.138      60770.988      87120        
    289500   289500         2535.5085      298.78425      9771.2862      2986.2459      12757.532      60732.216      87120        
    289600   289600         2536.2248      297.97481      9756.3841      2978.1558      12734.54       60699.548      87120        
    289700   289700         2536.9405      296.7976       9771.9232      2966.3899      12738.313      60826.089      87120        
    289800   289800         2537.6519      307.10529      9774.8621      3069.4117      12844.274      60732.642      87120        
    289900   289900         2538.378       312.83235      9708.6638      3126.6518      12835.316      60608.167      87120        
    290000   290000         2539.0919      300.64293      9736.5636      3004.8227      12741.386      60693.829      87120        
    290100   290100         2539.7987      296.4392       9743.1105      2962.8078      12705.918      60603.124      87120        
    290200   290200         2540.5067      300.13965      9720.0239      2999.7926      12719.816      60633.32       87120        
    290300   290300         2541.2271      305.91924      9700.9698      3057.5576      12758.527      60507.679      87120        
    290400   290400         2541.9432      300.7209       9722.7257      3005.602       12728.328      60477.733      87120        
    290500   290500         2542.6613      296.44459      9674.1405      2962.8618      12637.002      60304.106      87120        
    290600   290600         2543.3775      294.47737      9721.7795      2943.2001      12664.98       60518.346      87120        
    290700   290700         2544.0998      300.25882      9769.3764      3000.9836      12770.36       60660.909      87120        
    290800   290800         2544.8139      304.15203      9783.8098      3039.8949      12823.705      60791.35       87120        
    290900   290900         2545.5374      294.87903      9763.427       2947.2145      12710.642      60716.899      87120        
    291000   291000         2546.2525      294.72012      9795.0328      2945.6262      12740.659      60865.133      87120        
    291100   291100         2546.9628      303.94771      9817.491       3037.8528      12855.344      60983.298      87120        
    291200   291200         2547.693       304.48547      9835.087       3043.2276      12878.315      61116.024      87120        
    291300   291300         2548.4195      298.78084      9826.1073      2986.2118      12812.319      61004.386      87120        
    291400   291400         2549.1408      300.72231      9773.7618      3005.6161      12779.378      60846.504      87120        
    291500   291500         2549.8656      300.20231      9778.3277      3000.4188      12778.747      60903.035      87120        
    291600   291600         2550.5841      298.5544       9804.3294      2983.9485      12788.278      60921.136      87120        
    291700   291700         2551.3         309.57797      9762.3392      3094.1254      12856.465      60915.256      87120        
    291800   291800         2552.0253      300.69039      9789.7099      3005.2971      12795.007      60870.331      87120        
    291900   291900         2552.7332      298.42894      9698.5231      2982.6946      12681.218      60471.02       87120        
    292000   292000         2553.4578      296.62963      9664.9165      2964.7112      12629.628      60381.3        87120        
    292100   292100         2554.1717      303.42984      9653.7564      3032.6769      12686.433      60308.081      87120        
    292200   292200         2554.8838      304.86501      9684.5645      3047.0209      12731.585      60403.701      87120        
    292300   292300         2555.5887      298.95585      9698.4249      2987.9609      12686.386      60402.07       87120        
    292400   292400         2556.2994      300.9643       9636.6056      3008.0346      12644.64       60179.053      87120        
    292500   292500         2557.0038      301.5493       9616.228       3013.8815      12630.11       60150.705      87120        
    292600   292600         2557.7128      299.25951      9661.7244      2990.9959      12652.72       60321.911      87120        
    292700   292700         2558.4207      310.17792      9663.4338      3100.1217      12763.555      60421.568      87120        
    292800   292800         2559.1418      309.66927      9684.725       3095.0379      12779.763      60449.37       87120        
    292900   292900         2559.8555      298.05744      9743.3018      2978.9816      12722.283      60652.534      87120        
    293000   293000         2560.5764      296.54256      9769.3665      2963.8409      12733.207      60787.263      87120        
    293100   293100         2561.2968      292.5125       9847.7729      2923.5618      12771.335      61010.713      87120        
    293200   293200         2562.0087      301.66038      9800.3748      3014.9917      12815.367      60924.067      87120        
    293300   293300         2562.7181      298.20159      9879.6737      2980.4223      12860.096      61242.589      87120        
    293400   293400         2563.4368      306.12248      9845.0299      3059.5889      12904.619      61135.885      87120        
    293500   293500         2564.146       299.81091      9809.1809      2996.5069      12805.688      61008.912      87120        
    293600   293600         2564.8561      296.12475      9785.4025      2959.665       12745.068      60879.565      87120        
    293700   293700         2565.5691      298.20886      9789.1148      2980.495       12769.61       60846.96       87120        
    293800   293800         2566.2834      303.87638      9760.2937      3037.1399      12797.434      60686.982      87120        
    293900   293900         2566.9981      298.42419      9781.6909      2982.6471      12764.338      60776.685      87120        
    294000   294000         2567.7102      297.60706      9769.3342      2974.4802      12743.814      60758.492      87120        
    294100   294100         2568.4219      302.05461      9741.1393      3018.9319      12760.071      60610.887      87120        
    294200   294200         2569.1335      310.23544      9777.4569      3100.6965      12878.153      60747.602      87120        
    294300   294300         2569.8411      310.16687      9742.4433      3100.0112      12842.454      60672.856      87120        
    294400   294400         2570.5499      299.07303      9775.7754      2989.132       12764.907      60697.556      87120        
    294500   294500         2571.2525      301.4068       9724.4672      3012.4573      12736.924      60602.724      87120        
    294600   294600         2571.9646      297.54857      9737.2968      2973.8956      12711.192      60640.126      87120        
    294700   294700         2572.6765      297.94385      9742.2902      2977.8463      12720.136      60562.154      87120        
    294800   294800         2573.3821      305.62918      9778.1037      3054.6585      12832.762      60800.562      87120        
    294900   294900         2574.1024      307.93089      9780.5886      3077.6633      12858.252      60825.354      87120        
    295000   295000         2574.8019      299.99025      9788.6411      2998.2994      12786.94       60832.335      87120        
    295100   295100         2575.5065      297.28156      9797.7658      2971.2269      12768.993      60876.215      87120        
    295200   295200         2576.2199      300.23492      9770.4379      3000.7448      12771.183      60725.27       87120        
    295300   295300         2576.9381      296.86208      9762.0129      2967.0344      12729.047      60679.218      87120        
    295400   295400         2577.6457      296.89209      9678.2815      2967.3343      12645.616      60457.655      87120        
    295500   295500         2578.3582      294.61525      9687.7836      2944.5781      12632.362      60472.865      87120        
    295600   295600         2579.0722      299.16533      9741.3126      2990.0546      12731.367      60620.727      87120        
    295700   295700         2579.7677      306.89799      9689.5153      3067.3399      12756.855      60537.452      87120        
    295800   295800         2580.4808      303.99569      9654.2799      3038.3324      12692.612      60370.476      87120        
    295900   295900         2581.1923      290.67841      9712.6171      2905.2308      12617.848      60477.65       87120        
    296000   296000         2581.8959      300.02802      9659.9011      2998.6769      12658.578      60360.323      87120        
    296100   296100         2582.5946      298.54452      9718.5826      2983.8498      12702.432      60553.97       87120        
    296200   296200         2583.3         299.97325      9746.9642      2998.1295      12745.094      60660.722      87120        
    296300   296300         2583.9999      305.42886      9716.8489      3052.6564      12769.505      60580.693      87120        
    296400   296400         2584.704       288.96024      9776.9181      2888.0582      12664.976      60664.056      87120        
    296500   296500         2585.3927      295.04687      9703.7208      2948.892       12652.613      60489.833      87120        
    296600   296600         2586.0978      304.92748      9730.271       3047.6453      12777.916      60589.569      87120        
    296700   296700         2586.8067      304.9496       9771.9402      3047.8664      12819.807      60660.744      87120        
    296800   296800         2587.5162      298.05998      9796.1267      2979.007       12775.134      60892.14       87120        
    296900   296900         2588.2299      296.01715      9793.3502      2958.5896      12751.94       60866.235      87120        
    297000   297000         2588.9467      301.51208      9803.0683      3013.5095      12816.578      60881.811      87120        
    297100   297100         2589.66        304.74903      9816.8382      3045.8618      12862.7        60968.196      87120        
    297200   297200         2590.3704      302.7431       9768.1856      3025.8132      12793.999      60741.269      87120        
    297300   297300         2591.0828      297.4509       9746.2801      2972.9195      12719.2        60707.41       87120        
    297400   297400         2591.7881      295.60472      9778.9237      2954.4675      12733.391      60789.386      87120        
    297500   297500         2592.4957      303.02652      9748.4653      3028.6459      12777.111      60675.45       87120        
    297600   297600         2593.2013      304.89199      9719.8489      3047.2906      12767.14       60631.817      87120        
    297700   297700         2593.8946      294.12588      9733.8025      2939.687       12673.489      60593.129      87120        
    297800   297800         2594.6006      291.02611      9771.7937      2908.7059      12680.5        60735.98       87120        
    297900   297900         2595.3105      297.98513      9753.0804      2978.2589      12731.339      60627.408      87120        
    298000   298000         2596.0164      300.86877      9781.2545      3007.0798      12788.334      60788.458      87120        
    298100   298100         2596.7173      303.55591      9794.364       3033.9369      12828.301      60850.574      87120        
    298200   298200         2597.4224      300.11836      9785.2449      2999.5798      12784.825      60779.881      87120        
    298300   298300         2598.1163      296.321        9757.2328      2961.6265      12718.859      60757.075      87120        
    298400   298400         2598.8228      296.74645      9787.8666      2965.8787      12753.745      60808.613      87120        
    298500   298500         2599.5191      298.64088      9806.3477      2984.8129      12791.161      60870.432      87120        
    298600   298600         2600.2228      301.69089      9772.6674      3015.2967      12787.964      60816.466      87120        
    298700   298700         2600.9257      294.77273      9794.6356      2946.1521      12740.788      60767.698      87120        
    298800   298800         2601.6213      291.96736      9763.8612      2918.1134      12681.975      60723.09       87120        
    298900   298900         2602.3277      290.7473       9774.6361      2905.9193      12680.555      60717.439      87120        
    299000   299000         2603.0202      303.97633      9723.1302      3038.1389      12761.269      60505.69       87120        
    299100   299100         2603.7148      301.49721      9730.8501      3013.3609      12744.211      60532.792      87120        
    299200   299200         2604.4015      300.88571      9705.9492      3007.2492      12713.198      60434.432      87120        
    299300   299300         2605.097       295.50614      9705.7629      2953.4823      12659.245      60444.862      87120        
    299400   299400         2605.7823      294.69341      9688.896       2945.3593      12634.255      60398.447      87120        
    299500   299500         2606.4773      301.94638      9690.9117      3017.8502      12708.762      60347.5        87120        
    299600   299600         2607.1676      308.09082      9676.1963      3079.2618      12755.458      60399.342      87120        
    299700   299700         2607.8688      297.27564      9725.5047      2971.1678      12696.672      60487.092      87120        
    299800   299800         2608.5742      297.40985      9739.8837      2972.5091      12712.393      60630.039      87120        
    299900   299900         2609.2745      298.95115      9743.8542      2987.914       12731.768      60666.699      87120        
    300000   300000         2609.9761      296.47516      9797.4447      2963.1673      12760.612      60817.651      87120        
    300100   300100         2610.6736      302.18035      9763.6337      3020.1887      12783.822      60736.077      87120        
    300200   300200         2611.3699      302.6812       9735.234       3025.1945      12760.428      60654.122      87120        
    300300   300300         2612.0652      298.6833       9726.3929      2985.2369      12711.63       60611.068      87120        
    300400   300400         2612.7703      300.52179      9707.8007      3003.6119      12711.413      60553.795      87120        
    300500   300500         2613.4724      299.99636      9735.6272      2998.3605      12733.988      60612.118      87120        
    300600   300600         2614.1632      299.99816      9746.6116      2998.3785      12744.99       60721.151      87120        
    300700   300700         2614.8636      300.1876       9727.5212      3000.2718      12727.793      60584.942      87120        
    300800   300800         2615.5639      297.07652      9741.6202      2969.1777      12710.798      60627.568      87120        
    300900   300900         2616.265       296.72374      9716.7747      2965.6517      12682.426      60576.163      87120        
    301000   301000         2616.9709      295.2924       9733.8061      2951.346       12685.152      60555.417      87120        
    301100   301100         2617.6767      301.7464       9727.1606      3015.8515      12743.012      60630.244      87120        
    301200   301200         2618.3795      304.29587      9725.2427      3041.3326      12766.575      60563.749      87120        
    301300   301300         2619.0813      298.74712      9693.8823      2985.8747      12679.757      60396.075      87120        
    301400   301400         2619.772       294.46366      9684.401       2943.0631      12627.464      60383.812      87120        
    301500   301500         2620.4829      300.86811      9705.0023      3007.0733      12712.076      60452.154      87120        
    301600   301600         2621.1885      304.96885      9726.9808      3048.0588      12775.04       60561.542      87120        
    301700   301700         2621.8907      305.40123      9674.2229      3052.3803      12726.603      60360.847      87120        
    301800   301800         2622.5884      295.14035      9700.8562      2949.8263      12650.683      60441.716      87120        
    301900   301900         2623.2888      293.08139      9738.2128      2929.2477      12667.46       60545.173      87120        
    302000   302000         2623.9886      303.61671      9729.1109      3034.5446      12763.656      60550.66       87120        
    302100   302100         2624.685       304.39984      9758.8309      3042.3717      12801.203      60740.489      87120        
    302200   302200         2625.3731      293.31197      9741.1393      2931.5523      12672.692      60593.772      87120        
    302300   302300         2626.0811      293.49825      9752.957       2933.4141      12686.371      60740.619      87120        
    302400   302400         2626.789       302.64304      9773.9859      3024.8131      12798.799      60888.218      87120        
    302500   302500         2627.4973      304.51917      9766.1726      3043.5643      12809.737      60785.365      87120        
    302600   302600         2628.1989      294.16826      9772.5415      2940.1106      12712.652      60749.933      87120        
    302700   302700         2628.9097      293.86201      9762.5414      2937.0497      12699.591      60683.649      87120        
    302800   302800         2629.6111      297.89149      9768.9703      2977.323       12746.293      60729.501      87120        
    302900   302900         2630.3243      305.8015       9697.3051      3056.3808      12753.686      60513.901      87120        
    303000   303000         2631.0377      298.45032      9710.0885      2982.9083      12692.997      60440.219      87120        
    303100   303100         2631.7441      295.69218      9732.4616      2955.3417      12687.803      60509.065      87120        
    303200   303200         2632.4383      308.08341      9694.1538      3079.1877      12773.342      60405.202      87120        
    303300   303300         2633.1415      309.23702      9706.9868      3090.7177      12797.704      60489.257      87120        
    303400   303400         2633.85        300.14234      9698.7689      2999.8195      12698.588      60475.525      87120        
    303500   303500         2634.5563      297.94914      9687.2365      2977.8992      12665.136      60391.491      87120        
    303600   303600         2635.2705      298.39549      9710.2846      2982.3603      12692.645      60500.867      87120        
    303700   303700         2635.9828      300.71125      9754.0983      3005.5055      12759.604      60624.757      87120        
    303800   303800         2636.6839      311.32785      9715.4525      3111.6148      12827.067      60521.332      87120        
    303900   303900         2637.398       306.50744      9740.5276      3063.4364      12803.964      60627.726      87120        
    304000   304000         2638.1003      303.66969      9689.7983      3035.0742      12724.872      60440.042      87120        
    304100   304100         2638.7972      296.71264      9748.5961      2965.5408      12714.137      60672.639      87120        
    304200   304200         2639.5003      297.48546      9756.0976      2973.2648      12729.362      60702.251      87120        
    304300   304300         2640.1927      302.34966      9789.6268      3021.8809      12811.508      60821.777      87120        
    304400   304400         2640.8952      309.92575      9727.9767      3097.6013      12825.578      60643.464      87120        
    304500   304500         2641.5943      290.98548      9793.1981      2908.2998      12701.498      60772.342      87120        
    304600   304600         2642.2962      297.80596      9756.9166      2976.4681      12733.385      60741.027      87120        
    304700   304700         2642.998       301.27744      9765.499       3011.1644      12776.663      60765.889      87120        
    304800   304800         2643.7018      298.6558       9762.2287      2984.962       12747.191      60630.771      87120        
    304900   304900         2644.4104      293.58764      9771.2477      2934.3075      12705.555      60704.915      87120        
    305000   305000         2645.1215      296.02315      9738.6862      2958.6496      12697.336      60577.585      87120        
    305100   305100         2645.8244      307.91504      9676.3818      3077.5049      12753.887      60350.177      87120        
    305200   305200         2646.5295      302.19734      9706.3544      3020.3584      12726.713      60501.335      87120        
    305300   305300         2647.2121      293.35356      9698.1528      2931.9679      12630.121      60395.273      87120        
    305400   305400         2647.918       294.40271      9666.8495      2942.4539      12609.303      60265.116      87120        
    305500   305500         2648.6079      302.56882      9689.8936      3024.0713      12713.965      60382.164      87120        
    305600   305600         2649.3026      304.4001       9729.0508      3042.3743      12771.425      60562.566      87120        
    305700   305700         2650.0033      304.30257      9701.2785      3041.3996      12742.678      60508.921      87120        
    305800   305800         2650.6993      294.9017       9757.3978      2947.4411      12704.839      60666.571      87120        
    305900   305900         2651.4013      297.38773      9735.2763      2972.2881      12707.564      60588.076      87120        
    306000   306000         2652.101       301.81071      9790.2318      3016.4942      12806.726      60791.8        87120        
    306100   306100         2652.7997      303.81755      9830.7066      3036.5519      12867.259      61004.841      87120        
    306200   306200         2653.4981      297.16083      9785.9058      2970.0203      12755.926      60830.108      87120        
    306300   306300         2654.2114      292.64778      9801.0628      2924.9139      12725.977      60822.085      87120        
    306400   306400         2654.9145      302.15179      9769.2214      3019.9032      12789.125      60782.327      87120        
    306500   306500         2655.6043      301.15613      9772.3467      3009.952       12782.299      60770.653      87120        
    306600   306600         2656.3032      297.99304      9729.1637      2978.338       12707.502      60598.521      87120        
    306700   306700         2657.0052      291.44499      9744.7538      2912.8924      12657.646      60642.961      87120        
    306800   306800         2657.6997      301.31485      9734.5022      3011.5383      12746.041      60579.782      87120        
    306900   306900         2658.3966      306.59793      9716.5607      3064.3409      12780.902      60540.732      87120        
    307000   307000         2659.101       302.45664      9706.1566      3022.9501      12729.107      60496.466      87120        
    307100   307100         2659.7848      298.02592      9693.5531      2978.6666      12672.22       60381.632      87120        
    307200   307200         2660.4803      295.34091      9710.3451      2951.8309      12662.176      60460.131      87120        
    307300   307300         2661.1797      303.86742      9713.5172      3037.0504      12750.568      60469.995      87120        
    307400   307400         2661.8861      306.42357      9716.9675      3062.5982      12779.566      60539.259      87120        
    307500   307500         2662.5802      298.47384      9769.1537      2983.1434      12752.297      60641.655      87120        
    307600   307600         2663.2807      298.61849      9730.1142      2984.5891      12714.703      60509.549      87120        
    307700   307700         2663.9724      301.67796      9677.7738      3015.1675      12692.941      60376.974      87120        
    307800   307800         2664.6754      294.53899      9733.5443      2943.8159      12677.36       60400.012      87120        
    307900   307900         2665.3632      303.5402       9727.451       3033.7799      12761.231      60524.624      87120        
    308000   308000         2666.0539      308.38249      9720.1416      3082.177       12802.319      60506.025      87120        
    308100   308100         2666.7348      296.72773      9746.8794      2965.6916      12712.571      60518.366      87120        
    308200   308200         2667.4275      300.22933      9707.5592      3000.6889      12708.248      60489.151      87120        
    308300   308300         2668.1167      302.01289      9700.8186      3018.5149      12719.333      60446.791      87120        
    308400   308400         2668.8165      298.12377      9728.9732      2979.6446      12708.618      60520.34       87120        
    308500   308500         2669.5093      296.98766      9730.3936      2968.2895      12698.683      60543.637      87120        
    308600   308600         2670.2138      300.81845      9745.7761      3006.577       12752.353      60573.954      87120        
    308700   308700         2670.908       305.78367      9774.6908      3056.2026      12830.893      60817.868      87120        
    308800   308800         2671.6081      304.508        9764.4353      3043.4527      12807.888      60690.164      87120        
    308900   308900         2672.3092      295.51605      9755.5619      2953.5813      12709.143      60644.189      87120        
    309000   309000         2672.998       299.77105      9710.1932      2996.1085      12706.302      60525.974      87120        
    309100   309100         2673.6807      298.24423      9754.0379      2980.8485      12734.886      60620.654      87120        
    309200   309200         2674.3825      304.5599       9748.2887      3043.9715      12792.26       60693.424      87120        
    309300   309300         2675.0702      311.31629      9758.1063      3111.4993      12869.606      60698.217      87120        
    309400   309400         2675.7636      307.23143      9711.0455      3070.6725      12781.718      60470.491      87120        
    309500   309500         2676.4432      299.28475      9696.653       2991.2481      12687.901      60515.17       87120        
    309600   309600         2677.141       294.70318      9753.4032      2945.457       12698.86       60665.792      87120        
    309700   309700         2677.8405      301.18594      9766.9887      3010.2498      12777.238      60686.621      87120        
    309800   309800         2678.5347      304.30357      9732.1507      3041.4095      12773.56       60554.44       87120        
    309900   309900         2679.2168      295.39638      9760.9581      2952.3853      12713.343      60659.786      87120        
    310000   310000         2679.9223      296.07452      9727.2308      2959.163       12686.394      60494.699      87120        
    310100   310100         2680.617       300.95655      9749.2877      3007.9572      12757.245      60608.049      87120        
    310200   310200         2681.3205      301.10155      9777.2096      3009.4065      12786.616      60754.669      87120        
    310300   310300         2682.0102      300.40098      9778.1724      3002.4045      12780.577      60662.733      87120        
    310400   310400         2682.7007      304.48539      9743.0717      3043.2268      12786.298      60603.848      87120        
    310500   310500         2683.4083      301.7582       9758.7349      3015.9694      12774.704      60709.089      87120        
    310600   310600         2684.1082      292.81146      9817.2807      2926.5498      12743.831      60886.343      87120        
    310700   310700         2684.8058      298.44548      9779.831       2982.8599      12762.691      60820.537      87120        
    310800   310800         2685.4988      308.06595      9745.8983      3079.0132      12824.912      60701.816      87120        
    310900   310900         2686.2022      303.61898      9713.5955      3034.5673      12748.163      60474.475      87120        
    311000   311000         2686.8933      295.16231      9684.1797      2950.0458      12634.226      60356.696      87120        
    311100   311100         2687.5822      298.11933      9698.4376      2979.6001      12678.038      60375.845      87120        
    311200   311200         2688.2704      302.04246      9729.4501      3018.8106      12748.261      60565.966      87120        
    311300   311300         2688.9656      299.63979      9762.0805      2994.7966      12756.877      60656.109      87120        
    311400   311400         2689.6555      296.61235      9722.2208      2964.5385      12686.759      60450.108      87120        
    311500   311500         2690.3444      288.55484      9723.5772      2884.0064      12607.584      60509.428      87120        
    311600   311600         2691.0452      297.2597       9717.7668      2971.0085      12688.775      60513.775      87120        
    311700   311700         2691.7467      296.63198      9771.7222      2964.7346      12736.457      60698.609      87120        
    311800   311800         2692.4583      302.16445      9779.8966      3020.0297      12799.926      60818.084      87120        
    311900   311900         2693.1571      306.94456      9775.9898      3067.8053      12843.795      60769.828      87120        
    312000   312000         2693.8555      297.81399      9771.388       2976.5484      12747.936      60731.82       87120        
    312100   312100         2694.5486      295.79523      9753.0977      2956.3716      12709.469      60667.884      87120        
    312200   312200         2695.2517      298.8709       9776.7778      2987.1119      12763.89       60782.207      87120        
    312300   312300         2695.9469      301.89271      9762.7004      3017.3138      12780.014      60775.457      87120        
    312400   312400         2696.653       300.03509      9735.5208      2998.7475      12734.268      60566.04       87120        
    312500   312500         2697.3461      295.38473      9720.1875      2952.2688      12672.456      60490.04       87120        
    312600   312600         2698.051       301.02359      9712.2274      3008.6272      12720.855      60430.093      87120        
    312700   312700         2698.7574      306.45869      9711.5967      3062.9492      12774.546      60486.244      87120        
    312800   312800         2699.4513      300.62598      9692.2228      3004.6533      12696.876      60421.106      87120        
    312900   312900         2700.154       297.99832      9673.0586      2978.3907      12651.449      60291.837      87120        
    313000   313000         2700.8446      298.63141      9696.5293      2984.7182      12681.247      60406.79       87120        
    313100   313100         2701.5336      301.87088      9690.5207      3017.0957      12707.616      60356.873      87120        
    313200   313200         2702.2149      301.91638      9704.6021      3017.5504      12722.153      60380.714      87120        
    313300   313300         2702.9075      301.29387      9731.951       3011.3286      12743.28       60515.754      87120        
    313400   313400         2703.5955      302.91728      9722.1632      3027.554       12749.717      60464.948      87120        
    313500   313500         2704.2971      299.55127      9738.6545      2993.9119      12732.566      60601.379      87120        
    313600   313600         2704.9905      303.34184      9708.3919      3031.7973      12740.189      60530.292      87120        
    313700   313700         2705.6937      300.23657      9735.6455      3000.7613      12736.407      60587.359      87120        
    313800   313800         2706.3997      299.12265      9715.6419      2989.628       12705.27       60529.206      87120        
    313900   313900         2707.1122      297.92462      9755.4132      2977.6541      12733.067      60667.004      87120        
    314000   314000         2707.8151      306.12233      9775.6136      3059.5874      12835.201      60756.288      87120        
    314100   314100         2708.5036      303.34985      9789.0534      3031.8774      12820.931      60808.029      87120        
    314200   314200         2709.2013      294.8611       9763.1063      2947.0353      12710.142      60674.554      87120        
    314300   314300         2709.8931      296.73392      9696.7794      2965.7535      12662.533      60415.957      87120        
    314400   314400         2710.584       298.57537      9718.6047      2984.1582      12702.763      60525.099      87120        
    314500   314500         2711.2753      302.25263      9707.0515      3020.911       12727.963      60495.168      87120        
    314600   314600         2711.9705      302.33802      9686.0678      3021.7646      12707.832      60364.204      87120        
    314700   314700         2712.6606      293.38759      9678.3075      2932.308       12610.616      60354.249      87120        
    314800   314800         2713.3481      293.43801      9677.7782      2932.812       12610.59       60411.596      87120        
    314900   314900         2714.0366      304.37391      9682.0012      3042.1126      12724.114      60430.428      87120        
    315000   315000         2714.735       305.34844      9662.8477      3051.8526      12714.7        60345.877      87120        
    315100   315100         2715.4195      296.20309      9702.9882      2960.448       12663.436      60448.062      87120        
    315200   315200         2716.1078      299.84361      9689.4672      2996.8338      12686.301      60415.467      87120        
    315300   315300         2716.8052      303.10227      9698.8656      3029.4029      12728.269      60476.478      87120        
    315400   315400         2717.4959      310.99984      9706.5876      3108.3365      12814.924      60486.357      87120        
    315500   315500         2718.2013      313.49756      9753.9709      3133.3003      12887.271      60685.449      87120        
    315600   315600         2718.9014      300.16163      9786.5109      3000.0123      12786.523      60806.816      87120        
    315700   315700         2719.592       299.39011      9709.6434      2992.3012      12701.945      60515.532      87120        
    315800   315800         2720.29        293.80386      9730.7872      2936.4685      12667.256      60584.499      87120        
    315900   315900         2720.9766      298.69056      9753.9725      2985.3094      12739.282      60647.602      87120        
    316000   316000         2721.6752      304.96245      9749.005       3047.9948      12797          60621.227      87120        
    316100   316100         2722.3676      306.84187      9676.1925      3066.7789      12742.971      60386.292      87120        
    316200   316200         2723.0442      296.927        9723.4474      2967.6833      12691.131      60519.913      87120        
    316300   316300         2723.7346      303.61425      9641.2729      3034.52        12675.793      60229.577      87120        
    316400   316400         2724.4212      300.82935      9684.504       3006.6859      12691.19       60339.923      87120        
    316500   316500         2725.1077      308.09439      9687.9322      3079.2975      12767.23       60409.765      87120        
    316600   316600         2725.8077      303.03923      9673.9528      3028.7729      12702.726      60359.445      87120        
    316700   316700         2726.4822      296.65113      9681.8725      2964.926       12646.799      60370.904      87120        
    316800   316800         2727.1646      302.0175       9666.897       3018.561       12685.458      60327.913      87120        
    316900   316900         2727.8466      302.39217      9717.2644      3022.3058      12739.57       60517.888      87120        
    317000   317000         2728.5292      298.2028       9764.7787      2980.4344      12745.213      60707.59       87120        
    317100   317100         2729.2113      295.53854      9735.4266      2953.806       12689.233      60596.324      87120        
    317200   317200         2729.9016      297.85847      9691.9766      2976.993       12668.97       60458.762      87120        
    317300   317300         2730.5809      301.49011      9749.8547      3013.2899      12763.145      60640.255      87120        
    317400   317400         2731.2586      307.67473      9748.4502      3075.1032      12823.553      60640.752      87120        
    317500   317500         2731.9411      302.10093      9747.9394      3019.3949      12767.334      60687.628      87120        
    317600   317600         2732.6253      298.20732      9740.0115      2980.4796      12720.491      60556.797      87120        
    317700   317700         2733.3082      296.94003      9747.1692      2967.8135      12714.983      60570.855      87120        
    317800   317800         2733.9905      301.39552      9750.7473      3012.3446      12763.092      60645.262      87120        
    317900   317900         2734.6703      307.26973      9739.003       3071.0553      12810.058      60550.725      87120        
    318000   318000         2735.3523      304.63198      9696.504       3044.6918      12741.196      60403.115      87120        
    318100   318100         2736.0301      302.28398      9683.4646      3021.2244      12704.689      60393.599      87120        
    318200   318200         2736.717       297.75536      9688.4782      2975.9625      12664.441      60359.453      87120        
    318300   318300         2737.4051      300.79179      9665.3614      3006.3105      12671.672      60294.474      87120        
    318400   318400         2738.0893      306.61318      9689.9596      3064.4933      12754.453      60494.576      87120        
    318500   318500         2738.7704      308.45629      9716.0788      3082.9146      12798.993      60579.085      87120        
    318600   318600         2739.4558      302.96511      9675.5085      3028.032       12703.541      60391.599      87120        
    318700   318700         2740.1276      298.9781       9682.8829      2988.1833      12671.066      60466.253      87120        
    318800   318800         2740.82        301.45528      9675.1554      3012.9419      12688.097      60395.399      87120        
    318900   318900         2741.4984      302.81775      9667.6047      3026.5593      12694.164      60410.122      87120        
    319000   319000         2742.179       300.71061      9676.6215      3005.4991      12682.121      60433.723      87120        
    319100   319100         2742.8601      299.34877      9675.325       2991.888       12667.213      60330.529      87120        
    319200   319200         2743.5426      300.64072      9672.5739      3004.8007      12677.375      60334.229      87120        
    319300   319300         2744.2227      302.30953      9671.2571      3021.4798      12692.737      60330.701      87120        
    319400   319400         2744.9037      302.81168      9659.2035      3026.4986      12685.702      60320.046      87120        
    319500   319500         2745.583       293.79871      9692.1235      2936.4171      12628.541      60428.703      87120        
    319600   319600         2746.2662      294.73461      9714.9079      2945.7711      12660.679      60545.854      87120        
    319700   319700         2746.9488      304.39141      9682.0001      3042.2874      12724.288      60389.124      87120        
    319800   319800         2747.6316      299.13315      9728.306       2989.733       12718.039      60564.873      87120        
    319900   319900         2748.3158      297.8971       9735.6833      2977.379       12713.062      60578.149      87120        
    320000   320000         2748.9901      300.08713      9712.1         2999.2677      12711.368      60483.552      87120        
    320100   320100         2749.6718      296.98603      9704.7039      2968.2732      12672.977      60505.905      87120        
    320200   320200         2750.3454      291.55189      9716.6954      2913.9608      12630.656      60505.489      87120        
    320300   320300         2751.0328      301.88186      9706.5924      3017.2054      12723.798      60539.527      87120        
    320400   320400         2751.7148      299.28154      9757.3863      2991.2161      12748.602      60697.747      87120        
    320500   320500         2752.3952      298.62132      9725.6597      2984.6174      12710.277      60561.846      87120        
    320600   320600         2753.0678      296.57358      9697.2637      2964.1509      12661.415      60435.901      87120        
    320700   320700         2753.7522      296.77846      9659.8169      2966.1986      12626.016      60332.684      87120        
    320800   320800         2754.4327      304.30031      9704.9218      3041.377       12746.299      60459.659      87120        
    320900   320900         2755.1022      307.15357      9698.2437      3069.8943      12768.138      60438.627      87120        
    321000   321000         2755.7899      294.05684      9769.036       2938.997       12708.033      60744.052      87120        
    321100   321100         2756.4602      294.33637      9756.4337      2941.7908      12698.224      60607.53       87120        
    321200   321200         2757.1433      302.07588      9729.6205      3019.1446      12748.765      60492.972      87120        
    321300   321300         2757.8251      306.28862      9681.5899      3061.2494      12742.839      60399.163      87120        
    321400   321400         2758.4946      291.94628      9716.6649      2917.9027      12634.568      60471.872      87120        
    321500   321500         2759.1793      293.48719      9696.0812      2933.3036      12629.385      60362.91       87120        
    321600   321600         2759.851       298.27843      9722.8405      2981.1903      12704.031      60510.628      87120        
    321700   321700         2760.5283      305.70691      9671.639       3055.4355      12727.074      60377.662      87120        
    321800   321800         2761.2146      294.86681      9737.8115      2947.0924      12684.904      60471.628      87120        
    321900   321900         2761.8917      297.35886      9665.7201      2971.9996      12637.72       60307.906      87120        
    322000   322000         2762.5772      294.04104      9656.2929      2938.8391      12595.132      60294.175      87120        
    322100   322100         2763.2508      292.89603      9687.4615      2927.3951      12614.857      60361.1        87120        
    322200   322200         2763.9294      302.34984      9702.1919      3021.8827      12724.075      60508.755      87120        
    322300   322300         2764.5995      306.7066       9655.7876      3065.427       12721.215      60285.856      87120        
    322400   322400         2765.2787      296.29032      9715.0048      2961.3198      12676.325      60506.975      87120        
    322500   322500         2765.9578      292.92453      9723.8994      2927.68        12651.579      60559.601      87120        
    322600   322600         2766.6394      301.4083       9714.8342      3012.4723      12727.306      60488.669      87120        
    322700   322700         2767.3163      307.72208      9722.7226      3075.5764      12798.299      60610.45       87120        
    322800   322800         2767.9945      301.26878      9705.4912      3011.0779      12716.569      60500.588      87120        
    322900   322900         2768.6652      297.67889      9722.6803      2975.1981      12697.878      60520.128      87120        
    323000   323000         2769.345       299.0952       9723.6693      2989.3537      12713.023      60583.534      87120        
    323100   323100         2770.0227      303.75029      9699.3702      3035.8797      12735.25       60490.823      87120        
    323200   323200         2770.7012      301.61022      9740.4168      3014.4904      12754.907      60644.761      87120        
    323300   323300         2771.382       308.31836      9676.0175      3081.5359      12757.553      60446.247      87120        
    323400   323400         2772.0603      295.59398      9698.1321      2954.3602      12652.492      60453.051      87120        
    323500   323500         2772.728       296.78047      9659.8706      2966.2187      12626.089      60248.14       87120        
    323600   323600         2773.4097      299.80134      9693.6974      2996.4112      12690.109      60390.059      87120        
    323700   323700         2774.0893      299.75775      9740.8216      2995.9756      12736.797      60666.453      87120        
    323800   323800         2774.768       303.17743      9673.711       3030.1542      12703.865      60358.149      87120        
    323900   323900         2775.4477      301.82548      9658.2257      3016.6418      12674.868      60292.967      87120        
    324000   324000         2776.1147      298.44913      9682.2929      2982.8964      12665.189      60443.408      87120        
    324100   324100         2776.7871      297.98003      9668.2928      2978.2079      12646.501      60289.202      87120        
    324200   324200         2777.4653      296.57021      9639.3124      2964.1172      12603.43       60231.516      87120        
    324300   324300         2778.1411      291.91131      9695.7518      2917.5532      12613.305      60468.928      87120        
    324400   324400         2778.8209      302.61529      9703.9442      3024.5358      12728.48       60413.226      87120        
    324500   324500         2779.5068      306.53918      9705.8772      3063.7537      12769.631      60504.576      87120        
    324600   324600         2780.1858      299.10769      9723.5436      2989.4785      12713.022      60547.114      87120        
    324700   324700         2780.8752      294.57084      9746.7846      2944.1342      12690.919      60596.623      87120        
    324800   324800         2781.566       305.18567      9680.8433      3050.2258      12731.069      60443.546      87120        
    324900   324900         2782.2445      301.62845      9706.9075      3014.6726      12721.58       60562.464      87120        
    325000   325000         2782.9238      300.52311      9698.5449      3003.6252      12702.17       60548.022      87120        
    325100   325100         2783.5998      298.62352      9711.5128      2984.6394      12696.152      60569.56       87120        
    325200   325200         2784.2853      297.01158      9732.5941      2968.5286      12701.123      60662.291      87120        
    325300   325300         2784.9625      303.40916      9682.8924      3032.4702      12715.363      60486.017      87120        
    325400   325400         2785.6489      302.09348      9666.4012      3019.3205      12685.722      60383.113      87120        
    325500   325500         2786.3288      292.47758      9640.5771      2923.2128      12563.79       60243.146      87120        
    325600   325600         2787.0098      297.11871      9594.3617      2969.5993      12563.961      60062.722      87120        
    325700   325700         2787.6907      297.93739      9667.265       2977.7818      12645.047      60291.391      87120        
    325800   325800         2788.3657      304.19123      9646.6659      3040.2867      12686.953      60220.061      87120        
    325900   325900         2789.0387      299.46372      9669.8553      2993.0369      12662.892      60324.305      87120        
    326000   326000         2789.726       296.23775      9671.6759      2960.7945      12632.47       60301.84       87120        
    326100   326100         2790.3977      297.59521      9691.8509      2974.3618      12666.213      60428.316      87120        
    326200   326200         2791.0681      310.11657      9719.0409      3099.5084      12818.549      60564.955      87120        
    326300   326300         2791.7377      314.37801      9648.5123      3142.1001      12790.612      60274.39       87120        
    326400   326400         2792.4215      301.18265      9697.8868      3010.217       12708.104      60453.622      87120        
    326500   326500         2793.0993      296.59032      9688.5391      2964.3183      12652.857      60413.36       87120        
    326600   326600         2793.7787      289.78844      9737.5978      2896.3358      12633.934      60508.669      87120        
    326700   326700         2794.4553      305.55903      9669.2301      3053.9574      12723.188      60351.253      87120        
    326800   326800         2795.129       303.62729      9670.4429      3034.6504      12705.093      60373.191      87120        
    326900   326900         2795.8009      298.03626      9673.6276      2978.7699      12652.398      60380.352      87120        
    327000   327000         2796.4739      300.03243      9663.8247      2998.721       12662.546      60308.299      87120        
    327100   327100         2797.1461      302.73447      9639.448       3025.7269      12665.175      60220.31       87120        
    327200   327200         2797.82        299.30941      9662.0996      2991.4946      12653.594      60255.31       87120        
    327300   327300         2798.4849      306.38952      9580.8562      3062.2579      12643.114      59967.552      87120        
    327400   327400         2799.1598      295.71106      9598.4944      2955.5303      12554.025      60050.649      87120        
    327500   327500         2799.8414      291.79099      9620.3752      2916.3506      12536.726      60064.952      87120        
    327600   327600         2800.5076      296.00915      9698.1501      2958.5097      12656.66       60364.616      87120        
    327700   327700         2801.1891      306.6397       9651.8396      3064.7583      12716.598      60311.065      87120        
    327800   327800         2801.8613      301.24692      9658.2449      3010.8594      12669.104      60272.808      87120        
    327900   327900         2802.5371      293.39027      9695.0461      2932.3348      12627.381      60418.121      87120        
    328000   328000         2803.2225      301.3363       9682.2589      3011.7527      12694.012      60508.412      87120        
    328100   328100         2803.9092      301.96454      9692.0137      3018.0318      12710.045      60443.201      87120        
    328200   328200         2804.5828      303.99937      9679.5805      3038.3691      12717.95       60442.573      87120        
    328300   328300         2805.2522      299.38608      9689.18        2992.2609      12681.441      60507.047      87120        
    328400   328400         2805.9319      296.94291      9680.4671      2967.8423      12648.309      60395.667      87120        
    328500   328500         2806.5999      303.31404      9646.4496      3031.5195      12677.969      60194.501      87120        
    328600   328600         2807.2801      307.09619      9659.8253      3069.3208      12729.146      60270.14       87120        
    328700   328700         2807.9489      303.10038      9611.593       3029.3841      12640.977      60062.766      87120        
    328800   328800         2808.6268      296.20065      9645.3318      2960.4236      12605.755      60160.503      87120        
    328900   328900         2809.304       301.30064      9638.5755      3011.3962      12649.972      60182.529      87120        
    329000   329000         2809.9708      302.76173      9663.7202      3025.9994      12689.72       60281.291      87120        
    329100   329100         2810.6452      298.17597      9645.9537      2980.1663      12626.12       60210.063      87120        
    329200   329200         2811.3131      294.25385      9637.2307      2940.966       12578.197      60227.373      87120        
    329300   329300         2811.9841      300.69658      9656.5724      3005.3589      12661.931      60317.576      87120        
    329400   329400         2812.664       303.51857      9689.9749      3033.5637      12723.539      60439.678      87120        
    329500   329500         2813.3326      300.77656      9697.6448      3006.1583      12703.803      60416.396      87120        
    329600   329600         2814.0113      294.22011      9715.3461      2940.6288      12655.975      60513.376      87120        
    329700   329700         2814.6826      291.40267      9685.9903      2912.4695      12598.46       60450.308      87120        
    329800   329800         2815.3564      289.42475      9733.8277      2892.7008      12626.529      60563.196      87120        
    329900   329900         2816.0285      301.6057       9726.4557      3014.4452      12740.901      60595.61       87120        
    330000   330000         2816.7091      302.82989      9711.532       3026.6807      12738.213      60568.397      87120        
    330100   330100         2817.3752      298.88374      9674.4832      2987.2402      12661.723      60307.051      87120        
    330200   330200         2818.0451      296.17471      9643.8908      2960.1644      12604.055      60194.229      87120        
    330300   330300         2818.7121      298.21088      9701.8737      2980.5152      12682.389      60393.679      87120        
    330400   330400         2819.3769      302.81468      9686.4363      3026.5285      12712.965      60283.247      87120        
    330500   330500         2820.0519      299.9246       9642.3441      2997.6432      12639.987      60140.018      87120        
    330600   330600         2820.7259      296.27583      9610.9852      2961.175       12572.16       59936.79       87120        
    330700   330700         2821.3815      297.40196      9633.6111      2972.4303      12606.041      60171.524      87120        
    330800   330800         2822.0508      305.8832       9635.9792      3057.1974      12693.177      60203.355      87120        
    330900   330900         2822.7057      306.2462       9660.3753      3060.8254      12721.201      60278.625      87120        
    331000   331000         2823.3721      302.41233      9672.4373      3022.5073      12694.945      60383.078      87120        
    331100   331100         2824.0334      293.31185      9746.6204      2931.5511      12678.171      60594.065      87120        
    331200   331200         2824.6967      296.66672      9753.9728      2965.0818      12719.055      60641.458      87120        
    331300   331300         2825.3548      310.44426      9674.4622      3102.7837      12777.246      60394.032      87120        
    331400   331400         2826.0201      298.80516      9719.6094      2986.4548      12706.064      60515.105      87120        
    331500   331500         2826.6852      292.55906      9713.4926      2924.0272      12637.52       60407.398      87120        
    331600   331600         2827.3513      297.04407      9707.8998      2968.8533      12676.753      60353.694      87120        
    331700   331700         2828.0261      302.88228      9693.5081      3027.2043      12720.712      60419.281      87120        
    331800   331800         2828.6811      301.92854      9689.1532      3017.6719      12706.825      60319.189      87120        
    331900   331900         2829.3499      295.51212      9635.8045      2953.542       12589.347      60124.148      87120        
    332000   332000         2830.0132      293.04116      9618.7554      2928.8456      12547.601      60096.556      87120        
    332100   332100         2830.6725      300.30557      9612.218       3001.4509      12613.669      60008.235      87120        
    332200   332200         2831.3358      302.0464       9650.1239      3018.8499      12668.974      60255.195      87120        
    332300   332300         2832.0079      300.29173      9671.1565      3001.3126      12672.469      60276.784      87120        
    332400   332400         2832.6701      302.23502      9618.2395      3020.7351      12638.975      60106.519      87120        
    332500   332500         2833.324       291.77835      9665.45        2916.2242      12581.674      60345.076      87120        
    332600   332600         2833.9899      292.78667      9676.7027      2926.302       12603.005      60332.995      87120        
    332700   332700         2834.6572      302.7621       9701.1097      3026.003       12727.113      60452.908      87120        
    332800   332800         2835.3218      304.03634      9705.4601      3038.7387      12744.199      60464.975      87120        
    332900   332900         2835.9861      298.32798      9692.7362      2981.6856      12674.422      60331.618      87120        
    333000   333000         2836.6553      298.21448      9665.8907      2980.5512      12646.442      60295.047      87120        
    333100   333100         2837.3103      299.85928      9696.3535      2996.9903      12693.344      60405.539      87120        
    333200   333200         2837.9856      300.45888      9722.785       3002.9832      12725.768      60554.127      87120        
    333300   333300         2838.6462      300.64111      9696.7922      3004.8045      12701.597      60427.749      87120        
    333400   333400         2839.3071      303.06783      9605.1468      3029.0587      12634.206      60053.463      87120        
    333500   333500         2839.97        291.39504      9685.7895      2912.3932      12598.183      60298.064      87120        
    333600   333600         2840.6316      302.34968      9651.8266      3021.8811      12673.708      60137.164      87120        
    333700   333700         2841.2919      302.04068      9658.3464      3018.7927      12677.139      60239.016      87120        
    333800   333800         2841.9522      301.43029      9655.6004      3012.6921      12668.292      60276.262      87120        
    333900   333900         2842.6139      300.87604      9670.3788      3007.1526      12677.531      60191.346      87120        
    334000   334000         2843.2754      298.85869      9689.1766      2986.9898      12676.166      60351.746      87120        
    334100   334100         2843.9305      294.1121       9676.4041      2939.5493      12615.953      60286.756      87120        
    334200   334200         2844.5883      296.00446      9641.5547      2958.4627      12600.017      60161.908      87120        
    334300   334300         2845.2454      301.16481      9653.4987      3010.0387      12663.537      60241.047      87120        
    334400   334400         2845.9017      307.18854      9651.5941      3070.2438      12721.838      60285.606      87120        
    334500   334500         2846.5581      302.83806      9622.6661      3026.7622      12649.428      60159.389      87120        
    334600   334600         2847.2149      291.84017      9664.1132      2916.8422      12580.955      60277.245      87120        
    334700   334700         2847.868       295.05478      9693.13        2948.9711      12642.101      60334.522      87120        
    334800   334800         2848.5356      306.04623      9659.4184      3058.8269      12718.245      60229.881      87120        
    334900   334900         2849.1946      299.36793      9685.2786      2992.0795      12677.358      60287.087      87120        
    335000   335000         2849.843       297.52067      9646.4722      2973.6168      12620.089      60196.914      87120        
    335100   335100         2850.5024      300.30511      9614.0643      3001.4463      12615.511      60048.967      87120        
    335200   335200         2851.1635      298.47592      9583.6156      2983.1642      12566.78       59960.373      87120        
    335300   335300         2851.8217      291.05429      9624.0193      2908.9875      12533.007      60080.737      87120        
    335400   335400         2852.4824      299.23001      9638.4311      2990.701       12629.132      60161.164      87120        
    335500   335500         2853.1435      303.63159      9635.122       3034.6933      12669.815      60192.219      87120        
    335600   335600         2853.816       301.08931      9626.4701      3009.2841      12635.754      60112.326      87120        
    335700   335700         2854.4758      295.62601      9615.6342      2954.6803      12570.314      60085.079      87120        
    335800   335800         2855.1359      289.00896      9646.4058      2888.5452      12534.951      60223.828      87120        
    335900   335900         2855.7953      302.94871      9649.899       3027.8681      12677.767      60263.848      87120        
    336000   336000         2856.4545      304.72198      9641.1517      3045.5914      12686.743      60230.041      87120        
    336100   336100         2857.1109      301.70395      9602.015       3015.4272      12617.442      60060.767      87120        
    336200   336200         2857.7736      291.8878       9647.4893      2917.3181      12564.807      60222.303      87120        
    336300   336300         2858.428       303.64301      9572.8731      3034.8074      12607.681      59987.335      87120        
    336400   336400         2859.0878      303.16947      9632.8042      3030.0745      12662.879      60208.054      87120        
    336500   336500         2859.7578      309.74514      9638.4659      3095.7961      12734.262      60283.449      87120        
    336600   336600         2860.4129      304.4778       9610.069       3043.1509      12653.22       60062.12       87120        
    336700   336700         2861.0607      295.46953      9614.0512      2953.1164      12567.168      60126.533      87120        
    336800   336800         2861.7172      295.38025      9623.3242      2952.224       12575.548      60118.191      87120        
    336900   336900         2862.3846      301.83842      9629.8394      3016.7712      12646.611      60085.234      87120        
    337000   337000         2863.0438      305.88483      9635.0525      3057.2137      12692.266      60222.904      87120        
    337100   337100         2863.7003      296.09887      9656.725       2959.4063      12616.131      60179.113      87120        
    337200   337200         2864.3476      294.31812      9664.3753      2941.6084      12605.984      60282.615      87120        
    337300   337300         2865.0063      300.90683      9667.4442      3007.4602      12674.904      60408.867      87120        
    337400   337400         2865.6654      303.82002      9665.3315      3036.5767      12701.908      60281.66       87120        
    337500   337500         2866.3253      304.49256      9644.4465      3043.2985      12687.745      60283.959      87120        
    337600   337600         2866.9855      293.72514      9651.506       2935.6817      12587.188      60254.452      87120        
    337700   337700         2867.6425      292.74702      9625.0525      2925.9057      12550.958      60136.58       87120        
    337800   337800         2868.2869      300.28411      9611.2436      3001.2364      12612.48       60093.532      87120        
    337900   337900         2868.9513      296.99426      9659.0675      2968.3555      12627.423      60234.879      87120        
    338000   338000         2869.5952      301.1315       9641.1409      3009.7058      12650.847      60201.546      87120        
    338100   338100         2870.2445      300.75576      9614.5566      3005.9504      12620.507      60032.751      87120        
    338200   338200         2870.8944      294.03552      9574.8688      2938.7839      12513.653      59900.555      87120        
    338300   338300         2871.5455      294.45242      9566.3954      2942.9507      12509.346      59897.832      87120        
    338400   338400         2872.19        301.98075      9561.7332      3018.1937      12579.927      59824.818      87120        
    338500   338500         2872.8332      302.67341      9596.5462      3025.1167      12621.663      60028.062      87120        
    338600   338600         2873.4895      301.40391      9614.8335      3012.4284      12627.262      60012.766      87120        
    338700   338700         2874.1493      297.03948      9603.2922      2968.8075      12572.1        59991.912      87120        
    338800   338800         2874.7983      292.8092       9613.9548      2926.5273      12540.482      60072.135      87120        
    338900   338900         2875.4566      301.66943      9643.1796      3015.0822      12658.262      60230.234      87120        
    339000   339000         2876.1155      304.6318       9717.3447      3044.69        12762.035      60524.389      87120        
    339100   339100         2876.7688      304.13267      9696.8879      3039.7015      12736.589      60449.185      87120        
    339200   339200         2877.4145      293.92166      9720.6112      2937.6459      12658.257      60534.575      87120        
    339300   339300         2878.071       295.32955      9736.4057      2951.7173      12688.123      60641.394      87120        
    339400   339400         2878.727       303.8453       9687.0918      3036.8293      12723.921      60383.924      87120        
    339500   339500         2879.3751      299.48679      9675.9153      2993.2674      12669.183      60354.028      87120        
    339600   339600         2880.0334      297.89309      9646.8786      2977.339       12624.218      60199.553      87120        
    339700   339700         2880.6882      303.34443      9587.8964      3031.8233      12619.72       59959.817      87120        
    339800   339800         2881.3424      300.72361      9590.2192      3005.629       12595.848      59964.723      87120        
    339900   339900         2881.996       300.07137      9585.4204      2999.1101      12584.531      59947.942      87120        
    340000   340000         2882.6503      298.66447      9551.6282      2985.0487      12536.677      59782.832      87120        
    340100   340100         2883.2991      297.94668      9572.7803      2977.8746      12550.655      59837.566      87120        
    340200   340200         2883.9473      303.73235      9589.267       3035.7004      12624.967      59969.258      87120        
    340300   340300         2884.5987      303.50206      9600.1347      3033.3987      12633.533      59965.321      87120        
    340400   340400         2885.2583      294.08726      9646.9024      2939.301       12586.203      60123.416      87120        
    340500   340500         2885.9176      298.69185      9661.5227      2985.3223      12646.845      60289.004      87120        
    340600   340600         2886.5764      301.47187      9665.3256      3013.1077      12678.433      60286.609      87120        
    340700   340700         2887.2336      300.36034      9675.0684      3001.9983      12677.067      60350.279      87120        
    340800   340800         2887.8957      301.44276      9682.4715      3012.8167      12695.288      60391.455      87120        
    340900   340900         2888.5443      294.81143      9681.5831      2946.5388      12628.122      60366.268      87120        
    341000   341000         2889.2129      295.93994      9650.6579      2957.8179      12608.476      60232.477      87120        
    341100   341100         2889.8647      299.11825      9677.1791      2989.584       12666.763      60313.099      87120        
    341200   341200         2890.5167      304.54293      9656.9819      3043.8018      12700.784      60296.112      87120        
    341300   341300         2891.1689      300.04316      9649.7097      2998.8282      12648.538      60214.067      87120        
    341400   341400         2891.8201      293.02605      9611.8191      2928.6946      12540.514      60023.919      87120        
    341500   341500         2892.469       288.83371      9578.5709      2886.7936      12465.364      59916.571      87120        
    341600   341600         2893.1205      295.10381      9587.9589      2949.4611      12537.42       59902.314      87120        
    341700   341700         2893.7807      299.12595      9615.6194      2989.661       12605.28       60054.524      87120        
    341800   341800         2894.4296      305.51698      9604.8722      3053.5371      12658.409      60082.791      87120        
    341900   341900         2895.0823      302.2493       9615.6723      3020.8779      12636.55       60020.905      87120        
    342000   342000         2895.7392      295.19974      9600.3455      2950.4199      12550.765      59993.861      87120        
    342100   342100         2896.3874      299.6043       9565.0011      2994.442       12559.443      59859.873      87120        
    342200   342200         2897.0506      299.71104      9623.8272      2995.5087      12619.336      60108.123      87120        
    342300   342300         2897.6945      297.95556      9677.9587      2977.9634      12655.922      60347.92       87120        
    342400   342400         2898.3487      299.82924      9674.5946      2996.6902      12671.285      60341.463      87120        
    342500   342500         2899.0104      296.22861      9702.6135      2960.7031      12663.317      60377.684      87120        
    342600   342600         2899.6744      301.63845      9689.1735      3014.7725      12703.946      60405.374      87120        
    342700   342700         2900.3289      306.32123      9651.1256      3061.5754      12712.701      60308.533      87120        
    342800   342800         2900.9828      297.48682      9665.2495      2973.2785      12638.528      60319.779      87120        
    342900   342900         2901.6483      287.6968       9702.3799      2875.4306      12577.81       60328.818      87120        
    343000   343000         2902.3029      302.09967      9612.6354      3019.3823      12632.018      60117.113      87120        
    343100   343100         2902.9516      304.05799      9606.0525      3038.9551      12645.008      60115.909      87120        
    343200   343200         2903.6         300.17377      9597.7523      3000.1336      12597.886      59957.367      87120        
    343300   343300         2904.2572      296.59106      9609.779       2964.3256      12574.105      60046.857      87120        
    343400   343400         2904.9033      307.06548      9560.1098      3069.0139      12629.124      59831.69       87120        
    343500   343500         2905.563       315.31908      9557.7         3151.5058      12709.206      59782.928      87120        
    343600   343600         2906.2116      306.99875      9572.0843      3068.347       12640.431      59803.333      87120        
    343700   343700         2906.8592      298.18388      9587.4828      2980.2454      12567.728      59870.367      87120        
    343800   343800         2907.5082      298.54529      9557.0198      2983.8575      12540.877      59810.278      87120        
    343900   343900         2908.1558      294.8171       9602.2824      2946.5955      12548.878      59964.284      87120        
    344000   344000         2908.8153      300.14229      9650.1184      2999.819       12649.937      60226.453      87120        
    344100   344100         2909.462       303.42481      9678.1988      3032.6266      12710.825      60267.709      87120        
    344200   344200         2910.113       300.46693      9664.9737      3003.0636      12668.037      60240.178      87120        
    344300   344300         2910.7725      297.4396       9643.4479      2972.8065      12616.254      60212.101      87120        
    344400   344400         2911.4268      296.15943      9698.0109      2960.0116      12658.023      60404.812      87120        
    344500   344500         2912.082       302.21177      9691.6937      3020.5027      12712.196      60373.946      87120        
    344600   344600         2912.7378      304.26923      9663.491       3041.0663      12704.557      60291.957      87120        
    344700   344700         2913.3886      298.15674      9629.9492      2979.9741      12609.923      60135.042      87120        
    344800   344800         2914.0388      299.72382      9574.8318      2995.6365      12570.468      59999.666      87120        
    344900   344900         2914.6891      297.35432      9604.2792      2971.9541      12576.233      60060.074      87120        
    345000   345000         2915.3399      299.90021      9598.2512      2997.3995      12595.651      59979.631      87120        
    345100   345100         2915.9952      305.19065      9564.6566      3050.2756      12614.932      59834.981      87120        
    345200   345200         2916.6384      299.15046      9563.2822      2989.906       12553.188      59825.169      87120        
    345300   345300         2917.2731      293.17635      9555.8744      2930.1968      12486.071      59786.555      87120        
    345400   345400         2917.918       297.98435      9584.9108      2978.2511      12563.162      59936.014      87120        
    345500   345500         2918.5731      306.08967      9577.0284      3059.261       12636.289      59879.977      87120        
    345600   345600         2919.2244      301.4664       9628.3289      3013.053       12641.382      60121.127      87120        
    345700   345700         2919.879       295.22436      9666.4349      2950.6659      12617.101      60308.682      87120        
    345800   345800         2920.5307      294.16278      9602.8214      2940.0558      12542.877      59998.39       87120        
    345900   345900         2921.1678      289.8844       9585.5081      2897.2949      12482.803      59934.778      87120        
    346000   346000         2921.8131      294.39929      9662.4404      2942.4197      12604.86       60289.898      87120        
    346100   346100         2922.4551      301.58274      9651.7043      3014.2157      12665.92       60279.852      87120        
    346200   346200         2923.0954      305.53015      9587.1355      3053.6688      12640.804      59981.437      87120        
    346300   346300         2923.7394      296.85663      9588.0568      2966.9799      12555.037      59971.38       87120        
    346400   346400         2924.375       298.47878      9552.2082      2983.1928      12535.401      59774.792      87120        
    346500   346500         2925.0181      306.43479      9542.91        3062.7104      12605.62       59800.902      87120        
    346600   346600         2925.6608      306.74251      9543.3807      3065.7859      12609.167      59811.939      87120        
    346700   346700         2926.304       301.75389      9571.8499      3015.9264      12587.776      59912.928      87120        
    346800   346800         2926.9453      298.16809      9583.8052      2980.0875      12563.893      59877.552      87120        
    346900   346900         2927.5902      297.72275      9588.9976      2975.6365      12564.634      59941.539      87120        
    347000   347000         2928.2352      294.42453      9628.4584      2942.6719      12571.13       60049.723      87120        
    347100   347100         2928.8744      296.66185      9656.6338      2965.0332      12621.667      60236.005      87120        
    347200   347200         2929.5143      304.12755      9672.1827      3039.6503      12711.833      60298.566      87120        
    347300   347300         2930.1602      303.54216      9652.4065      3033.7995      12686.206      60201.442      87120        
    347400   347400         2930.8066      296.35568      9645.984       2961.9731      12607.957      60177.924      87120        
    347500   347500         2931.4504      295.71587      9651.5918      2955.5784      12607.17       60239.598      87120        
    347600   347600         2932.0941      299.02248      9629.9148      2988.6269      12618.542      60120.506      87120        
    347700   347700         2932.7385      298.6294       9629.9611      2984.6981      12614.659      60014.156      87120        
    347800   347800         2933.385       300.04107      9594.8981      2998.8073      12593.705      59897.635      87120        
    347900   347900         2934.0295      303.63198      9556.4056      3034.6973      12591.103      59822.637      87120        
    348000   348000         2934.6759      307.65693      9593.7608      3074.9252      12668.686      59926.62       87120        
    348100   348100         2935.316       308.20015      9600.4366      3080.3546      12680.791      60008.99       87120        
    348200   348200         2935.9542      300.17757      9574.5035      3000.1716      12574.675      59887.524      87120        
    348300   348300         2936.5945      294.6743       9623.7463      2945.1683      12568.915      60011.626      87120        
    348400   348400         2937.2343      303.83292      9551.0118      3036.7055      12587.717      59831.45       87120        
    348500   348500         2937.8779      301.15947      9599.8515      3009.9853      12609.837      59998.631      87120        
    348600   348600         2938.5197      305.49548      9577.9644      3053.3223      12631.287      59859.267      87120        
    348700   348700         2939.1661      293.61011      9660.222       2934.532       12594.754      60120.708      87120        
    348800   348800         2939.8031      301.09049      9612.4759      3009.2959      12621.772      60023.95       87120        
    348900   348900         2940.4605      299.92016      9677.1823      2997.5988      12674.781      60239.614      87120        
    349000   349000         2941.1063      306.80951      9636.0318      3066.4556      12702.487      60070.831      87120        
    349100   349100         2941.7438      299.83055      9598.4152      2996.7033      12595.118      59915.753      87120        
    349200   349200         2942.374       294.98631      9577.3311      2948.2867      12525.618      59724.56       87120        
    349300   349300         2943.0027      298.71914      9571.1051      2985.5951      12556.7        59827.495      87120        
    349400   349400         2943.6408      302.8384       9609.7175      3026.7656      12636.483      60006.958      87120        
    349500   349500         2944.2724      303.06162      9625.5394      3028.9967      12654.536      59983.373      87120        
    349600   349600         2944.9173      300.4689       9609.91        3003.0834      12612.993      59998.329      87120        
    349700   349700         2945.556       294.15955      9605.5465      2940.0235      12545.57       59936.502      87120        
    349800   349800         2946.1923      300.58577      9581.2905      3004.2514      12585.542      59896.775      87120        
    349900   349900         2946.8313      303.99565      9620.4412      3038.332       12658.773      60117.38       87120        
    350000   350000         2947.4709      297.90382      9642.2317      2977.4462      12619.678      60130.369      87120        
    350100   350100         2948.1066      299.56485      9585.8163      2994.0477      12579.864      59915.593      87120        
    350200   350200         2948.7349      297.20194      9642.2133      2970.4312      12612.645      60158.718      87120        
    350300   350300         2949.3749      298.79068      9693.7867      2986.3101      12680.097      60339.757      87120        
    350400   350400         2950.0236      304.59992      9663.0176      3044.3714      12707.389      60300.972      87120        
    350500   350500         2950.665       296.47659      9625.9186      2963.1816      12589.1        60171.917      87120        
    350600   350600         2951.3165      293.84835      9596.6759      2936.9132      12533.589      59995.167      87120        
    350700   350700         2951.9447      298.54001      9589.6083      2983.8047      12573.413      59961.212      87120        
    350800   350800         2952.5916      300.67628      9593.3166      3005.156       12598.473      59985.082      87120        
    350900   350900         2953.2362      302.03312      9557.6153      3018.7172      12576.333      59791.073      87120        
    351000   351000         2953.8812      299.2344       9506.2604      2990.7449      12497.005      59591.921      87120        
    351100   351100         2954.5146      289.93677      9507.9902      2897.8183      12405.808      59559.533      87120        
    351200   351200         2955.1524      292.62162      9560.9691      2924.6525      12485.622      59716.58       87120        
    351300   351300         2955.7771      303.12354      9542.7014      3029.6155      12572.317      59741.687      87120        
    351400   351400         2956.4213      302.0114       9575.0709      3018.5001      12593.571      59889.074      87120        
    351500   351500         2957.0627      299.87347      9579.3709      2997.1322      12576.503      59957.715      87120        
    351600   351600         2957.7057      295.82004      9599.7773      2956.6196      12556.397      60058.252      87120        
    351700   351700         2958.3357      300.29696      9655.8074      3001.3649      12657.172      60266.257      87120        
    351800   351800         2958.977       310.80851      9639.4377      3106.4242      12745.862      60246.083      87120        
    351900   351900         2959.6305      301.482        9663.0054      3013.2089      12676.214      60266.986      87120        
    352000   352000         2960.2716      297.63894      9636.2427      2974.7989      12611.042      60187.714      87120        
    352100   352100         2960.9081      299.69557      9628.6335      2995.3542      12623.988      60151.782      87120        
    352200   352200         2961.5438      301.1047       9648.4956      3009.4379      12657.933      60189.985      87120        
    352300   352300         2962.1806      301.12386      9619.1442      3009.6294      12628.774      60023.372      87120        
    352400   352400         2962.8162      303.05943      9526.5366      3028.9747      12555.511      59649.525      87120        
    352500   352500         2963.4487      298.81255      9528.6213      2986.5287      12515.15       59660.254      87120        
    352600   352600         2964.0812      297.64658      9544.1427      2974.8752      12519.018      59653.846      87120        
    352700   352700         2964.7161      302.09545      9570.6875      3019.3401      12590.028      59744.027      87120        
    352800   352800         2965.3501      306.00376      9533.358       3058.4023      12591.76       59647.797      87120        
    352900   352900         2965.9834      302.29109      9537.2616      3021.2954      12558.557      59648.02       87120        
    353000   353000         2966.6186      296.70587      9577.576       2965.4731      12543.049      59805.759      87120        
    353100   353100         2967.2503      302.45053      9548.1166      3022.889       12571.006      59741.853      87120        
    353200   353200         2967.8803      298.5365       9599.6338      2983.7697      12583.404      59951.424      87120        
    353300   353300         2968.5098      293.88132      9611.3693      2937.2427      12548.612      60019.492      87120        
    353400   353400         2969.1396      297.29048      9595.9281      2971.3161      12567.244      59994.874      87120        
    353500   353500         2969.7641      301.66189      9621.2472      3015.0069      12636.254      60021.608      87120        
    353600   353600         2970.4065      305.90404      9638.9567      3057.4057      12696.362      60211.078      87120        
    353700   353700         2971.0324      296.69778      9634.2575      2965.3923      12599.65       60122.941      87120        
    353800   353800         2971.6747      298.86363      9579.9996      2987.0392      12567.039      59911.97       87120        
    353900   353900         2972.31        298.3603       9587.039       2982.0086      12569.048      59987.455      87120        
    354000   354000         2972.9364      302.21722      9589.3464      3020.5572      12609.904      59928.717      87120        
    354100   354100         2973.5742      304.66335      9599.0682      3045.0054      12644.074      59910.921      87120        
    354200   354200         2974.2045      302.04267      9588.1756      3018.8126      12606.988      59898.001      87120        
    354300   354300         2974.833       295.88526      9517.6138      2957.2714      12474.885      59580.278      87120        
    354400   354400         2975.4607      297.91062      9496.9598      2977.5142      12474.474      59541.185      87120        
    354500   354500         2976.0899      299.53792      9543.6624      2993.7785      12537.441      59659.255      87120        
    354600   354600         2976.7347      302.48747      9582.3226      3023.2583      12605.581      59815.431      87120        
    354700   354700         2977.3666      302.82346      9610.519       3026.6163      12637.135      59936.12       87120        
    354800   354800         2977.9954      297.87066      9598.7609      2977.1149      12575.876      59857.527      87120        
    354900   354900         2978.6171      297.95593      9556.0603      2977.967       12534.027      59783.57       87120        
    355000   355000         2979.2473      296.55891      9592.3173      2964.0043      12556.322      59877.86       87120        
    355100   355100         2979.8716      308.1479       9569.1907      3079.8323      12649.023      59851.343      87120        
    355200   355200         2980.4958      301.62838      9612.0634      3014.6719      12626.735      59961.672      87120        
    355300   355300         2981.1136      299.56102      9586.8586      2994.0093      12580.868      59879.176      87120        
    355400   355400         2981.7406      303.9645       9524.2785      3038.0206      12562.299      59686.974      87120        
    355500   355500         2982.3774      303.83828      9532.1286      3036.7591      12568.888      59707.605      87120        
    355600   355600         2982.9988      296.4154       9591.1078      2962.57        12553.678      59884.721      87120        
    355700   355700         2983.6313      297.85141      9573.8121      2976.9224      12550.734      59822.798      87120        
    355800   355800         2984.2624      301.84932      9567.9885      3016.8802      12584.869      59761.082      87120        
    355900   355900         2984.8909      307.37549      9546.1699      3072.1124      12618.282      59716.674      87120        
    356000   356000         2985.521       300.68693      9576.6143      3005.2625      12581.877      59777.29       87120        
    356100   356100         2986.1486      292.97965      9590.5525      2928.2308      12518.783      59878.796      87120        
    356200   356200         2986.7793      295.29656      9608.2608      2951.3875      12559.648      59955.379      87120        
    356300   356300         2987.4157      301.07033      9580.6345      3009.0944      12589.729      59832.125      87120        
    356400   356400         2988.0448      303.17829      9594.3253      3030.1627      12624.488      59915.652      87120        
    356500   356500         2988.6749      299.13722      9645.6262      2989.7736      12635.4        60153.793      87120        
    356600   356600         2989.3028      294.82055      9651.2779      2946.63        12597.908      60165.799      87120        
    356700   356700         2989.9374      294.8422       9620.8638      2946.8463      12567.71       60044.702      87120        
    356800   356800         2990.5574      300.7716       9631.9208      3006.1087      12638.03       60059.936      87120        
    356900   356900         2991.1873      302.05924      9652.2342      3018.9783      12671.212      60094.602      87120        
    357000   357000         2991.8164      303.12614      9565.2032      3029.6416      12594.845      59758.887      87120        
    357100   357100         2992.4291      297.20493      9577.6586      2970.461       12548.12       59824.344      87120        
    357200   357200         2993.05        301.24224      9529.5401      3010.8126      12540.353      59700.014      87120        
    357300   357300         2993.6618      298.90515      9558.7153      2987.4542      12546.17       59745.143      87120        
    357400   357400         2994.283       300.05759      9556.5278      2998.9724      12555.5        59756.367      87120        
    357500   357500         2994.906       301.32227      9551.6848      3011.6124      12563.297      59741.545      87120        
    357600   357600         2995.5228      304.29175      9540.9647      3041.2914      12582.256      59725.583      87120        
    357700   357700         2996.1489      298.40327      9592.4218      2982.438       12574.86       59935.388      87120        
    357800   357800         2996.7694      299.22335      9593.2899      2990.6345      12583.924      59904.519      87120        
    357900   357900         2997.3958      298.98612      9595.0996      2988.2634      12583.363      59865.476      87120        
    358000   358000         2998.0232      299.23289      9574.6024      2990.7298      12565.332      59864.884      87120        
    358100   358100         2998.6367      298.09576      9589.1606      2979.3646      12568.525      59955.394      87120        
    358200   358200         2999.2577      293.76363      9662.5389      2936.0664      12598.605      60184.194      87120        
    358300   358300         2999.8809      308.55259      9597.8044      3083.8771      12681.682      60028.306      87120        
    358400   358400         3000.5039      301.5879       9571.6451      3014.2674      12585.912      59843.441      87120        
    358500   358500         3001.1177      298.84333      9542.7454      2986.8363      12529.582      59677.475      87120        
    358600   358600         3001.7412      301.45091      9516.0796      3012.8982      12528.978      59552.302      87120        
    358700   358700         3002.3643      298.05595      9579.1853      2978.9667      12558.152      59759.622      87120        
    358800   358800         3002.9876      307.83922      9555.7581      3076.7471      12632.505      59692.557      87120        
    358900   358900         3003.6031      301.76649      9578.2401      3016.0523      12594.292      59774.507      87120        
    359000   359000         3004.2265      297.10456      9538.0691      2969.4579      12507.527      59688.587      87120        
    359100   359100         3004.8467      298.4478       9532.0316      2982.8831      12514.915      59573.535      87120        
    359200   359200         3005.4702      304.01565      9560.3116      3038.5318      12598.843      59775.926      87120        
    359300   359300         3006.0912      310.54058      9539.4285      3103.7463      12643.175      59715.239      87120        
    359400   359400         3006.7127      299.99781      9533.2736      2998.375       12531.649      59636.904      87120        
    359500   359500         3007.327       293.48397      9593.1554      2933.2713      12526.427      59979.843      87120        
    359600   359600         3007.9529      300.1627       9624.1441      3000.023       12624.167      60130.83       87120        
    359700   359700         3008.5776      303.72617      9646.5067      3035.6386      12682.145      60201.885      87120        
    359800   359800         3009.2063      299.60854      9650.1278      2994.4843      12644.612      60195.28       87120        
    359900   359900         3009.8389      295.33822      9626.4438      2951.8039      12578.248      60082.761      87120        
    360000   360000         3010.4678      294.2822       9594.4363      2941.2493      12535.686      59954.778      87120        
    360100   360100         3011.0877      305.28678      9572.1452      3051.2363      12623.382      59937.765      87120        
    360200   360200         3011.7092      303.64391      9603.4882      3034.8165      12638.305      60020.845      87120        
    360300   360300         3012.3352      300.46445      9556.6967      3003.0388      12559.736      59811.947      87120        
    360400   360400         3012.9467      294.39846      9532.7057      2942.4114      12475.117      59645.27       87120        
    360500   360500         3013.5673      295.92508      9552.454       2957.6694      12510.123      59662.201      87120        
    360600   360600         3014.1899      306.40853      9537.8786      3062.4479      12600.327      59678.816      87120        
    360700   360700         3014.8179      305.15012      9496.2456      3049.8705      12546.116      59484.243      87120        
    360800   360800         3015.4363      295.85779      9520.7025      2956.9969      12477.699      59511.294      87120        
    360900   360900         3016.0489      297.79337      9535.9877      2976.3423      12512.33       59670.287      87120        
    361000   361000         3016.6743      300.07171      9606.5648      2999.1136      12605.678      59917.791      87120        
    361100   361100         3017.2908      310.26925      9585.8674      3101.0345      12686.902      59898.182      87120        
    361200   361200         3017.9066      299.73603      9602.5199      2995.7586      12598.278      59919.054      87120        
    361300   361300         3018.5256      301.09349      9599.0102      3009.3259      12608.336      59953.202      87120        
    361400   361400         3019.1496      297.70046      9628.2782      2975.4137      12603.692      59986.727      87120        
    361500   361500         3019.7699      298.86157      9588.5488      2987.0187      12575.567      59960.985      87120        
    361600   361600         3020.3883      298.15458      9544.1249      2979.9525      12524.077      59770.194      87120        
    361700   361700         3020.9988      291.77712      9557.8388      2916.212       12474.051      59729.603      87120        
    361800   361800         3021.6176      298.3191       9546.4103      2981.5968      12528.007      59752.79       87120        
    361900   361900         3022.2348      308.62876      9509.3016      3084.6383      12593.94       59611.936      87120        
    362000   362000         3022.8512      300.83279      9556.5933      3006.7203      12563.314      59776.725      87120        
    362100   362100         3023.4664      298.35255      9541.6065      2981.9312      12523.538      59720.467      87120        
    362200   362200         3024.0724      294.93075      9508.8433      2947.7314      12456.575      59563.481      87120        
    362300   362300         3024.6894      288.94706      9549.5147      2887.9265      12437.441      59681.97       87120        
    362400   362400         3025.3079      302.20827      9542.2164      3020.4677      12562.684      59715.03       87120        
    362500   362500         3025.9265      304.55459      9540.6221      3043.9184      12584.54       59752.406      87120        
    362600   362600         3026.5365      301.0376       9561.1752      3008.7673      12569.943      59773.179      87120        
    362700   362700         3027.1542      295.94636      9556.4149      2957.8821      12514.297      59745.58       87120        
    362800   362800         3027.771       294.05735      9558.0907      2939.0021      12497.093      59744.599      87120        
    362900   362900         3028.3936      301.91605      9585.1176      3017.5471      12602.665      59867.35       87120        
    363000   363000         3029.0102      298.99149      9626.1078      2988.3171      12614.425      59989.961      87120        
    363100   363100         3029.6259      304.89359      9516.3455      3047.3066      12563.652      59618.463      87120        
    363200   363200         3030.2309      291.79979      9591.2748      2916.4386      12507.713      59802.832      87120        
    363300   363300         3030.845       298.40874      9552.9799      2982.4927      12535.473      59738.005      87120        
    363400   363400         3031.4673      297.98263      9592.8666      2978.2339      12571.1        59899.49       87120        
    363500   363500         3032.0829      303.68158      9563.2911      3035.1929      12598.484      59783.181      87120        
    363600   363600         3032.7006      303.04188      9523.8887      3028.7994      12552.688      59674.879      87120        
    363700   363700         3033.3129      294.27055      9528.8939      2941.133       12470.027      59660.341      87120        
    363800   363800         3033.9276      295.95703      9557.4547      2957.9887      12515.443      59774.789      87120        
    363900   363900         3034.5442      301.12817      9557.4609      3009.6725      12567.133      59785.004      87120        
    364000   364000         3035.1704      300.56371      9596.6033      3004.0309      12600.634      59923.256      87120        
    364100   364100         3035.7834      307.79663      9537.8438      3076.3214      12614.165      59771.899      87120        
    364200   364200         3036.4008      295.49845      9555.235       2953.4053      12508.64       59785.84       87120        
    364300   364300         3037.0175      295.19568      9512.7533      2950.3793      12463.133      59637.408      87120        
    364400   364400         3037.6204      299.4318       9542.3942      2992.7179      12535.112      59823.264      87120        
    364500   364500         3038.2321      297.97349      9591.345       2978.1426      12569.488      59979.866      87120        
    364600   364600         3038.8467      301.73526      9532.8869      3015.7402      12548.627      59686.39       87120        
    364700   364700         3039.4596      298.38975      9506.1867      2982.3029      12488.49       59565.872      87120        
    364800   364800         3040.0716      290.46565      9547.0919      2903.1043      12450.196      59699.241      87120        
    364900   364900         3040.6768      301.86467      9538.666       3017.0335      12555.7        59703.886      87120        
    365000   365000         3041.2925      305.78336      9548.6385      3056.1995      12604.838      59782.046      87120        
    365100   365100         3041.9077      300.09264      9569.8694      2999.3227      12569.192      59724.137      87120        
    365200   365200         3042.5081      295.9885       9528.1316      2958.3033      12486.435      59592.687      87120        
    365300   365300         3043.1172      302.89768      9476.2892      3027.3581      12503.647      59478.277      87120        
    365400   365400         3043.7356      306.07378      9577.256       3059.1022      12636.358      59808.232      87120        
    365500   365500         3044.3461      310.56465      9535.796       3103.9869      12639.783      59696.049      87120        
    365600   365600         3044.9576      297.3986       9561.6257      2972.3967      12534.022      59743.876      87120        
    365700   365700         3045.559       292.90752      9560.3753      2927.5099      12487.885      59691.032      87120        
    365800   365800         3046.1684      299.08667      9546.2567      2989.2684      12535.525      59747.949      87120        
    365900   365900         3046.7791      307.44956      9537.9199      3072.8526      12610.772      59745.084      87120        
    366000   366000         3047.3896      306.03123      9518.6003      3058.6769      12577.277      59634.347      87120        
    366100   366100         3047.9973      301.01672      9481.9612      3008.5585      12490.52       59386.962      87120        
    366200   366200         3048.6059      296.56317      9509.8057      2964.0469      12473.853      59544.535      87120        
    366300   366300         3049.2136      300.31439      9513.5629      3001.5391      12515.102      59498.239      87120        
    366400   366400         3049.8305      307.13033      9516.9784      3069.662       12586.64       59538.379      87120        
    366500   366500         3050.4413      299.90735      9575.1216      2997.4708      12572.592      59765.97       87120        
    366600   366600         3051.0547      295.21561      9542.2327      2950.5785      12492.811      59564.246      87120        
    366700   366700         3051.6564      292.46556      9602.2383      2923.0927      12525.331      59881.868      87120        
    366800   366800         3052.2664      301.00811      9570.9614      3008.4725      12579.434      59773.679      87120        
    366900   366900         3052.881       298.08678      9640.1289      2979.2748      12619.404      60037.099      87120        
    367000   367000         3053.4935      301.00363      9658.1367      3008.4278      12666.565      60181.368      87120        
    367100   367100         3054.0924      300.80638      9615.8933      3006.4563      12622.35       59997.398      87120        
    367200   367200         3054.7019      295.14861      9582.3261      2949.9088      12532.235      59894.591      87120        
    367300   367300         3055.3046      293.23151      9593.0056      2930.7481      12523.754      59940.693      87120        
    367400   367400         3055.9157      305.60511      9573.6487      3054.418       12628.067      59851.246      87120        
    367500   367500         3056.5169      303.41415      9553.0782      3032.5201      12585.598      59754.207      87120        
    367600   367600         3057.1312      295.9621       9552.2481      2958.0394      12510.287      59680.818      87120        
    367700   367700         3057.743       295.41124      9560.7155      2952.5337      12513.249      59616.897      87120        
    367800   367800         3058.3509      301.66397      9573.7968      3015.0276      12588.824      59771.343      87120        
    367900   367900         3058.9635      304.0129       9547.4391      3038.5043      12585.943      59708.914      87120        
    368000   368000         3059.5716      301.97558      9524.2316      3018.1421      12542.374      59550.643      87120        
    368100   368100         3060.1771      302.52315      9464.338       3023.6148      12487.953      59383.908      87120        
    368200   368200         3060.7763      296.93854      9497.1686      2967.7986      12464.967      59516.827      87120        
    368300   368300         3061.389       296.81637      9555.8334      2966.5775      12522.411      59678.944      87120        
    368400   368400         3061.9996      302.77169      9559.0919      3026.0989      12585.191      59852.392      87120        
    368500   368500         3062.6082      304.40116      9538.4235      3042.3849      12580.808      59714.637      87120        
    368600   368600         3063.2119      302.77123      9535.8278      3026.0943      12561.922      59634.23       87120        
    368700   368700         3063.8221      293.15324      9582.5942      2929.9658      12512.56       59847.675      87120        
    368800   368800         3064.4303      287.73749      9567.9795      2875.8372      12443.817      59690.38       87120        
    368900   368900         3065.0321      298.25307      9556.406       2980.9369      12537.343      59724.775      87120        
    369000   369000         3065.6581      302.30774      9566.8904      3021.4619      12588.352      59788.315      87120        
    369100   369100         3066.2612      300.44555      9575.3656      3002.8499      12578.216      59755.328      87120        
    369200   369200         3066.868       297.93396      9556.5684      2977.7475      12534.316      59718.143      87120        
    369300   369300         3067.4754      295.11609      9540.592       2949.5838      12490.176      59643.741      87120        
    369400   369400         3068.091       300.31915      9527.2867      3001.5867      12528.873      59569.473      87120        
    369500   369500         3068.6966      305.60336      9546.5474      3054.4005      12600.948      59721.672      87120        
    369600   369600         3069.3031      298.92021      9582.3099      2987.6047      12569.915      59784.62       87120        
    369700   369700         3069.9084      292.98794      9563.267       2928.3137      12491.581      59668.787      87120        
    369800   369800         3070.5119      292.30544      9515.4631      2921.4923      12436.955      59587.85       87120        
    369900   369900         3071.1167      301.51055      9514.3326      3013.4943      12527.827      59615.161      87120        
    370000   370000         3071.7209      305.64101      9524.4006      3054.7768      12579.177      59613.404      87120        
    370100   370100         3072.3197      301.94265      9515.4012      3017.8129      12533.214      59659.05       87120        
    370200   370200         3072.9251      299.70036      9544.5213      2995.4021      12539.923      59795.521      87120        
    370300   370300         3073.5334      300.07114      9566.1957      2999.1078      12565.303      59809.329      87120        
    370400   370400         3074.1293      298.82673      9590.5427      2986.6704      12577.213      59954.32       87120        
    370500   370500         3074.7338      303.64003      9598.6584      3034.7777      12633.436      59964.553      87120        
    370600   370600         3075.3318      305.47284      9623.8863      3053.096       12676.982      60045.239      87120        
    370700   370700         3075.9478      301.96184      9619.2053      3018.0047      12637.21       60160.522      87120        
    370800   370800         3076.5566      293.85084      9638.3957      2936.9381      12575.334      60069.087      87120        
    370900   370900         3077.1651      300.97216      9589.0307      3008.1132      12597.144      59871.319      87120        
    371000   371000         3077.7817      307.10431      9568.2436      3069.402       12637.646      59861.964      87120        
    371100   371100         3078.3919      307.94721      9580.7262      3077.8264      12658.553      59836.425      87120        
    371200   371200         3079.0156      306.06059      9504.7036      3058.9704      12563.674      59564.342      87120        
    371300   371300         3079.6263      293.39748      9519.8647      2932.4069      12452.272      59551.299      87120        
    371400   371400         3080.2377      300.00846      9488.0644      2998.4814      12486.546      59457.156      87120        
    371500   371500         3080.8496      303.87039      9491.6883      3037.0801      12528.768      59468.212      87120        
    371600   371600         3081.4544      305.25743      9451.4849      3050.943       12502.428      59343.594      87120        
    371700   371700         3082.0685      293.09147      9522.878       2929.3484      12452.226      59581.636      87120        
    371800   371800         3082.6823      296.42581      9457.398       2962.674       12420.072      59380.374      87120        
    371900   371900         3083.2953      293.36699      9525.4742      2932.1022      12457.576      59699.963      87120        
    372000   372000         3083.9081      304.10527      9548.793       3039.4276      12588.221      59766.748      87120        
    372100   372100         3084.5211      299.29772      9602.3639      2991.3778      12593.742      59982.277      87120        
    372200   372200         3085.1366      299.90144      9565.7027      2997.4118      12563.114      59892.049      87120        
    372300   372300         3085.7527      295.22527      9566.7607      2950.6751      12517.436      59783.557      87120        
    372400   372400         3086.3701      296.10154      9587.2369      2959.433       12546.67       59834.72       87120        
    372500   372500         3086.9762      306.36067      9566.929       3061.9696      12628.899      59882.017      87120        
    372600   372600         3087.5898      301.79282      9553.2839      3016.3155      12569.599      59771.932      87120        
    372700   372700         3088.1973      294.22533      9550.6008      2940.681       12491.282      59683.034      87120        
    372800   372800         3088.8021      295.1859       9528.5065      2950.2816      12478.788      59602.432      87120        
    372900   372900         3089.4057      303.57935      9535.0044      3034.1712      12569.176      59630.858      87120        
    373000   373000         3090.0094      306.99621      9507.7996      3068.3216      12576.121      59511.184      87120        
    373100   373100         3090.6142      304.26417      9510.9         3041.0157      12551.916      59523.363      87120        
    373200   373200         3091.2139      299.27493      9498           2991.15        12489.15       59515.595      87120        
    373300   373300         3091.8108      297.27746      9494.3873      2971.186       12465.573      59463.421      87120        
    373400   373400         3092.4073      301.45338      9482.4186      3012.9228      12495.341      59452.476      87120        
    373500   373500         3092.9962      302.56699      9549.6463      3024.053       12573.699      59723.899      87120        
    373600   373600         3093.596       305.7398       9593.6777      3055.7642      12649.442      59918.446      87120        
    373700   373700         3094.1978      296.84837      9598.502       2966.8974      12565.399      59916.565      87120        
    373800   373800         3094.7907      293.16523      9606.3851      2930.0857      12536.471      59939.219      87120        
    373900   373900         3095.3807      301.16001      9597.2874      3009.9907      12607.278      59880.589      87120        
    374000   374000         3095.9849      302.32497      9600.3342      3021.6341      12621.968      59948.164      87120        
    374100   374100         3096.5832      304.57603      9514.2749      3044.1327      12558.408      59637.103      87120        
    374200   374200         3097.1703      300.01715      9494.081       2998.5682      12492.649      59462.923      87120        
    374300   374300         3097.7722      291.92568      9564.0298      2917.6968      12481.727      59747.926      87120        
    374400   374400         3098.3657      302.39979      9534.1319      3022.3819      12556.514      59631.006      87120        
    374500   374500         3098.9693      301.74271      9549.6475      3015.8146      12565.462      59672.942      87120        
    374600   374600         3099.5576      299.17222      9528.4407      2990.1234      12518.564      59535.1        87120        
    374700   374700         3100.155       299.64075      9470.0359      2994.8062      12464.842      59331.196      87120        
    374800   374800         3100.7501      296.38393      9483.2735      2962.2555      12445.529      59371.454      87120        
    374900   374900         3101.3404      293.51995      9551.9959      2933.6309      12485.627      59648.004      87120        
    375000   375000         3101.9418      304.65309      9559.1357      3044.9029      12604.039      59695.862      87120        
    375100   375100         3102.5355      305.61687      9548.9768      3054.5355      12603.512      59682.842      87120        
    375200   375200         3103.1305      298.21899      9562.4548      2980.5963      12543.051      59778.97       87120        
    375300   375300         3103.7251      299.38091      9532.3422      2992.2093      12524.551      59619.509      87120        
    375400   375400         3104.3191      299.20067      9571.0559      2990.4078      12561.464      59779.515      87120        
    375500   375500         3104.9043      304.91411      9563.022       3047.5117      12610.534      59764.371      87120        
    375600   375600         3105.4985      309.17044      9557.8472      3090.0522      12647.899      59706.601      87120        
    375700   375700         3106.0948      303.13052      9565.5269      3029.6853      12595.212      59779.491      87120        
    375800   375800         3106.6826      293.99845      9592.4733      2938.4134      12530.887      59845.89       87120        
    375900   375900         3107.2783      303.26497      9533.8485      3031.0291      12564.878      59601.314      87120        
    376000   376000         3107.869       304.36497      9530.1171      3042.0232      12572.14       59525.522      87120        
    376100   376100         3108.4636      299.65272      9513.9311      2994.9258      12508.857      59517.526      87120        
    376200   376200         3109.0494      291.45901      9510.3057      2913.0326      12423.338      59440.015      87120        
    376300   376300         3109.6447      293.39514      9527.8296      2932.3836      12460.213      59564.148      87120        
    376400   376400         3110.24        302.4804       9499.4309      3023.1876      12522.618      59464.093      87120        
    376500   376500         3110.8298      294.85476      9604.7417      2946.9719      12551.714      59825.047      87120        
    376600   376600         3111.4336      307.08845      9543.0034      3069.2435      12612.247      59673.478      87120        
    376700   376700         3112.0224      303.74633      9567.8964      3035.8401      12603.737      59752.944      87120        
    376800   376800         3112.6282      292.99601      9577.051       2928.3944      12505.445      59819.241      87120        
    376900   376900         3113.2237      297.84666      9549.3167      2976.8749      12526.192      59683.489      87120        
    377000   377000         3113.8209      304.18245      9565.0736      3040.1989      12605.273      59693.658      87120        
    377100   377100         3114.4138      300.69091      9588.4115      3005.3022      12593.714      59773.17       87120        
    377200   377200         3114.9988      295.72966      9575.5785      2955.7162      12531.295      59721.593      87120        
    377300   377300         3115.5986      287.23846      9605.5292      2870.8496      12476.379      59845.637      87120        
    377400   377400         3116.1926      298.19567      9560.68        2980.3631      12541.043      59758.857      87120        
    377500   377500         3116.7976      304.61285      9589.6424      3044.5007      12634.143      59849.207      87120        
    377600   377600         3117.394       304.0766       9593.1388      3039.1411      12632.28       59896.654      87120        
    377700   377700         3117.9831      295.7349       9594.1237      2955.7686      12549.892      59849.844      87120        
    377800   377800         3118.5812      293.87985      9601.1067      2937.2281      12538.335      59850.132      87120        
    377900   377900         3119.1719      302.5955       9559.9096      3024.338       12584.248      59750.617      87120        
    378000   378000         3119.7713      299.51107      9607.5872      2993.5102      12601.097      59977.535      87120        
    378100   378100         3120.3557      303.60114      9570.0356      3034.389       12604.425      59728.405      87120        
    378200   378200         3120.9486      295.64792      9606.4504      2954.8993      12561.35       59843.099      87120        
    378300   378300         3121.5303      297.65335      9541.2093      2974.9429      12516.152      59616.868      87120        
    378400   378400         3122.1212      300.42165      9485.764       3002.611       12488.375      59372.986      87120        
    378500   378500         3122.7106      296.65956      9522.193       2965.0103      12487.203      59566.408      87120        
    378600   378600         3123.2944      303.28526      9513.0279      3031.2319      12544.26       59513.236      87120        
    378700   378700         3123.8857      305.21311      9505.0002      3050.5         12555.5        59467.581      87120        
    378800   378800         3124.4759      296.75444      9497.4365      2965.9586      12463.395      59436.159      87120        
    378900   378900         3125.0573      297.27055      9517.3177      2971.1169      12488.435      59484.447      87120        
    379000   379000         3125.6414      301.06201      9550.2432      3009.0113      12559.254      59667.173      87120        
    379100   379100         3126.228       302.84607      9556.5904      3026.8423      12583.433      59777.011      87120        
    379200   379200         3126.8089      304.84304      9506.9538      3046.8014      12553.755      59602.078      87120        
    379300   379300         3127.4038      296.64485      9568.3763      2964.8633      12533.24       59866.128      87120        
    379400   379400         3127.9979      299.55442      9554.6688      2993.9435      12548.612      59782.266      87120        
    379500   379500         3128.5893      298.79371      9581.0475      2986.3404      12567.388      59854.042      87120        
    379600   379600         3129.1828      299.77642      9593.0645      2996.1622      12589.227      59932.291      87120        
    379700   379700         3129.7772      305.65978      9554.3174      3054.9643      12609.282      59707.249      87120        
    379800   379800         3130.3695      301.4474       9521.6678      3012.8631      12534.531      59606.579      87120        
    379900   379900         3130.9668      293.51961      9472.8814      2933.6275      12406.509      59348.358      87120        
    380000   380000         3131.5471      294.69921      9473.0916      2945.4173      12418.509      59309.358      87120        
    380100   380100         3132.1387      301.11833      9478.4237      3009.5742      12487.998      59297.723      87120        
    380200   380200         3132.7303      305.82518      9424.2129      3056.6175      12480.83       59189.756      87120        
    380300   380300         3133.3176      294.77624      9475.2251      2946.1871      12421.412      59287.872      87120        
    380400   380400         3133.8952      299.76546      9416.7897      2996.0527      12412.842      59143.516      87120        
    380500   380500         3134.4843      299.56746      9459.1257      2994.0738      12453.199      59330.65       87120        
    380600   380600         3135.0672      304.7999       9545.2247      3046.3701      12591.595      59680.645      87120        
    380700   380700         3135.6608      308.05268      9552.9704      3078.8806      12631.851      59772.094      87120        
    380800   380800         3136.243       301.43693      9535.5025      3012.7585      12548.261      59721.385      87120        
    380900   380900         3136.8314      296.39951      9551.2053      2962.4112      12513.616      59730.345      87120        
    381000   381000         3137.4105      303.44299      9542.9881      3032.8083      12575.796      59737.297      87120        
    381100   381100         3137.9872      303.5079       9578.911       3033.4571      12612.368      59869.759      87120        
    381200   381200         3138.5779      294.84052      9596.1568      2946.8296      12542.986      59811.814      87120        
    381300   381300         3139.1598      290.85241      9507.2913      2906.9698      12414.261      59537.489      87120        
    381400   381400         3139.7514      292.84355      9531.3962      2926.8706      12458.267      59605.135      87120        
    381500   381500         3140.3343      299.63303      9523.7205      2994.7291      12518.45       59581.799      87120        
    381600   381600         3140.926       301.59146      9530.3543      3014.3029      12544.657      59573.629      87120        
    381700   381700         3141.5129      297.28126      9543.0999      2971.224       12514.324      59584.926      87120        
    381800   381800         3142.0945      296.42518      9483.4249      2962.6677      12446.093      59412.75       87120        
    381900   381900         3142.6867      295.259        9496.1313      2951.0121      12447.143      59458.282      87120        
    382000   382000         3143.2696      303.36414      9571.4996      3032.0203      12603.52       59754.854      87120        
    382100   382100         3143.8592      311.92566      9514.2126      3117.5897      12631.802      59598.186      87120        
    382200   382200         3144.4507      300.96932      9547.4876      3008.0848      12555.572      59767.941      87120        
    382300   382300         3145.032       296.49076      9532.4935      2963.3232      12495.817      59557.425      87120        
    382400   382400         3145.6133      293.60261      9560.4114      2934.4571      12494.868      59726.211      87120        
    382500   382500         3146.2052      303.29887      9558.1626      3031.3679      12589.531      59808.576      87120        
    382600   382600         3146.7992      304.4661       9584.7589      3043.034       12627.793      59775.108      87120        
    382700   382700         3147.398       305.00145      9504.9794      3048.3846      12553.364      59575.383      87120        
    382800   382800         3147.9849      298.73444      9518.5368      2985.748       12504.285      59580.954      87120        
    382900   382900         3148.5768      300.59452      9512.6934      3004.3388      12517.032      59466.695      87120        
    383000   383000         3149.1671      297.7585       9490.0045      2975.9938      12465.998      59424.823      87120        
    383100   383100         3149.7528      295.20725      9483.1604      2950.4949      12433.655      59438.16       87120        
    383200   383200         3150.3309      300.28689      9518.1668      3001.2642      12519.431      59470.992      87120        
    383300   383300         3150.9254      305.82846      9479.1871      3056.6503      12535.837      59378.152      87120        
    383400   383400         3151.5087      301.27895      9484.5471      3011.1795      12495.727      59447.02       87120        
    383500   383500         3152.0931      296.17896      9509.9805      2960.2068      12470.187      59480.814      87120        
    383600   383600         3152.682       294.9734       9537.292       2948.1577      12485.45       59563.087      87120        
    383700   383700         3153.2792      298.28391      9525.1139      2981.2451      12506.359      59525.941      87120        
    383800   383800         3153.8568      299.3374       9524.4379      2991.7743      12516.212      59539.078      87120        
    383900   383900         3154.4408      302.89669      9523.8662      3027.3483      12551.214      59582.964      87120        
    384000   384000         3155.0258      300.95885      9582.1853      3007.9802      12590.165      59742.902      87120        
    384100   384100         3155.6081      309.71857      9495.4274      3095.5306      12590.958      59408.409      87120        
    384200   384200         3156.1922      299.34698      9484.8183      2991.8701      12476.688      59359.375      87120        
    384300   384300         3156.773       295.00113      9513.4421      2948.4348      12461.877      59527.155      87120        
    384400   384400         3157.3672      297.83001      9554.9288      2976.7086      12531.637      59619.59       87120        
    384500   384500         3157.9556      304.12239      9547.1777      3039.5987      12586.776      59599.434      87120        
    384600   384600         3158.5426      301.65078      9541.237       3014.8958      12556.133      59670.776      87120        
    384700   384700         3159.125       294.80748      9540.3592      2946.4994      12486.859      59585.264      87120        
    384800   384800         3159.7008      294.1097       9556.6375      2939.5253      12496.163      59647.776      87120        
    384900   384900         3160.2881      302.23135      9522.3899      3020.6984      12543.088      59590.994      87120        
    385000   385000         3160.8751      301.19319      9519.7764      3010.3223      12530.099      59543.71       87120        
    385100   385100         3161.4571      296.00705      9538.415       2958.4887      12496.904      59550.244      87120        
    385200   385200         3162.0282      301.28745      9509.9378      3011.2644      12521.202      59461.02       87120        
    385300   385300         3162.6083      302.27876      9516.8753      3021.1722      12538.047      59467.174      87120        
    385400   385400         3163.1889      294.15178      9520.3822      2939.9459      12460.328      59538.048      87120        
    385500   385500         3163.7706      298.08243      9424.2858      2979.2314      12403.517      59186.945      87120        
    385600   385600         3164.3574      296.3482       9476.0139      2961.8983      12437.912      59351.915      87120        
    385700   385700         3164.9441      306.50499      9470.9455      3063.412       12534.357      59328.563      87120        
    385800   385800         3165.5193      301.34313      9527.8948      3011.821       12539.716      59591.12       87120        
    385900   385900         3166.1032      302.20174      9477.1824      3020.4025      12497.585      59390.21       87120        
    386000   386000         3166.6863      293.68052      9520.1646      2935.2358      12455.4        59500.746      87120        
    386100   386100         3167.2609      301.88007      9509.331       3017.1875      12526.518      59502.104      87120        
    386200   386200         3167.8506      306.74796      9519.6276      3065.8404      12585.468      59518.71       87120        
    386300   386300         3168.4319      303.21893      9547.4608      3030.5689      12578.03       59601.939      87120        
    386400   386400         3169.0171      306.64622      9515.5376      3064.8235      12580.361      59554.686      87120        
    386500   386500         3169.602       298.9193       9536.7446      2987.5956      12524.34       59567.577      87120        
    386600   386600         3170.1786      297.668        9525.2017      2975.0893      12500.291      59559.523      87120        
    386700   386700         3170.7619      299.26217      9555.5469      2991.0225      12546.569      59724.119      87120        
    386800   386800         3171.3496      306.46256      9611.0713      3062.9879      12674.059      59883.38       87120        
    386900   386900         3171.9399      307.52314      9610.5568      3073.588       12684.145      59994.289      87120        
    387000   387000         3172.5167      298.06795      9582.0505      2979.0867      12561.137      59872.219      87120        
    387100   387100         3173.0962      298.34207      9552.6134      2981.8264      12534.44       59659.224      87120        
    387200   387200         3173.6703      298.92802      9562.6109      2987.6828      12550.294      59679.006      87120        
    387300   387300         3174.2558      303.21872      9562.3933      3030.5669      12592.96       59708.758      87120        
    387400   387400         3174.8371      305.9941       9527.5405      3058.3057      12585.846      59450.107      87120        
    387500   387500         3175.4183      293.72192      9536.3717      2935.6496      12472.021      59513.979      87120        
    387600   387600         3175.9958      291.17766      9515.2249      2910.2206      12425.445      59442.342      87120        
    387700   387700         3176.5773      296.31402      9561.2504      2961.5568      12522.807      59570.83       87120        
    387800   387800         3177.1565      300.10137      9568.4522      2999.41        12567.862      59662.669      87120        
    387900   387900         3177.731       300.25905      9550.8426      3000.9859      12551.829      59622.262      87120        
    388000   388000         3178.3127      295.08426      9559.5791      2949.2657      12508.845      59611.052      87120        
    388100   388100         3178.8913      300.98351      9538.8261      3008.2267      12547.053      59604.199      87120        
    388200   388200         3179.4626      308.27355      9596.1424      3081.0881      12677.23       59803.132      87120        
    388300   388300         3180.0393      309.24617      9576.6825      3090.8091      12667.492      59795.882      87120        
    388400   388400         3180.6152      300.38857      9597.3475      3002.2804      12599.628      59888.447      87120        
    388500   388500         3181.1937      299.94236      9576.5334      2997.8207      12574.354      59749.345      87120        
    388600   388600         3181.7664      296.23268      9555.0805      2960.7438      12515.824      59696.011      87120        
    388700   388700         3182.3474      295.47491      9549.4772      2953.1701      12502.647      59634.807      87120        
    388800   388800         3182.9276      304.21438      9557.7178      3040.5182      12598.236      59687.522      87120        
    388900   388900         3183.5139      306.91988      9540.69        3067.5587      12608.249      59708.797      87120        
    389000   389000         3184.0915      299.20192      9535.4753      2990.4203      12525.896      59548.422      87120        
    389100   389100         3184.6578      298.66665      9505.9314      2985.0705      12491.002      59401.237      87120        
    389200   389200         3185.2336      301.03947      9458.5349      3008.786       12467.321      59323.701      87120        
    389300   389300         3185.8042      294.18628      9508.6797      2940.2907      12448.97       59412.463      87120        
    389400   389400         3186.3808      298.16329      9497.2932      2980.0396      12477.333      59403.826      87120        
    389500   389500         3186.9576      299.60298      9580.6192      2994.4288      12575.048      59765.583      87120        
    389600   389600         3187.5257      301.82757      9581.378       3016.6628      12598.041      59678.059      87120        
    389700   389700         3188.111       301.65136      9522.0027      3014.9016      12536.904      59576.162      87120        
    389800   389800         3188.6903      297.1613       9512.5964      2970.025       12482.621      59489.576      87120        
    389900   389900         3189.2689      293.62075      9567.7753      2934.6384      12502.414      59674.983      87120        
    390000   390000         3189.8541      302.83322      9517.8174      3026.7139      12544.531      59551.659      87120        
    390100   390100         3190.4272      306.70897      9479.3447      3065.4507      12544.795      59442.944      87120        
    390200   390200         3191.0017      298.36557      9512.2336      2982.0613      12494.295      59556.97       87120        
    390300   390300         3191.5782      296.48556      9529.2265      2963.2712      12492.498      59558.127      87120        
    390400   390400         3192.1538      305.55693      9564.2929      3053.9364      12618.229      59737.122      87120        
    390500   390500         3192.729       304.0192       9587.4436      3038.5674      12626.011      59795.823      87120        
    390600   390600         3193.2973      304.49137      9507.9201      3043.2866      12551.207      59471.851      87120        
    390700   390700         3193.8704      297.33382      9508.4057      2971.7493      12480.155      59455.779      87120        
    390800   390800         3194.4351      303.0405       9472.9761      3028.7856      12501.762      59357.41       87120        
    390900   390900         3195.0062      309.23847      9437.865       3090.7322      12528.597      59269.872      87120        
    391000   391000         3195.5796      298.98427      9485.9718      2988.2449      12474.217      59325.325      87120        
    391100   391100         3196.1482      292.13892      9483.8639      2919.828       12403.692      59240.729      87120        
    391200   391200         3196.7092      299.22216      9478.7998      2990.6226      12469.422      59344.072      87120        
    391300   391300         3197.278       304.64996      9492.37        3044.8716      12537.242      59381.094      87120        
    391400   391400         3197.8518      299.94444      9544.27        2997.8415      12542.112      59526.25       87120        
    391500   391500         3198.4235      301.73899      9522.1825      3015.7774      12537.96       59514.357      87120        
    391600   391600         3198.987       293.68925      9544.095       2935.3231      12479.418      59566.072      87120        
    391700   391700         3199.5604      285.8142       9551.4944      2856.6147      12408.109      59632.849      87120        
    391800   391800         3200.1267      296.31985      9530.2946      2961.615       12491.91       59624.753      87120        
    391900   391900         3200.7076      297.69155      9586.0913      2975.3247      12561.416      59803.094      87120        
    392000   392000         3201.2882      302.56014      9592.6377      3023.9846      12616.622      59826.938      87120        
    392100   392100         3201.8547      302.16555      9578.0193      3020.0407      12598.06       59762.08       87120        
    392200   392200         3202.4304      295.40998      9576.1184      2952.5211      12528.64       59815.053      87120        
    392300   392300         3202.9982      296.59797      9550.2488      2964.3947      12514.643      59648.072      87120        
    392400   392400         3203.5714      306.77431      9540.1         3066.1037      12606.204      59610.473      87120        
    392500   392500         3204.1494      307.35186      9512.1616      3071.8761      12584.038      59551.319      87120        
    392600   392600         3204.7226      300.9879       9517.9554      3008.2705      12526.226      59525.758      87120        
    392700   392700         3205.3002      296.0011       9564.775       2958.4292      12523.204      59821.467      87120        
    392800   392800         3205.8658      300.16664      9583.7584      3000.0623      12583.821      59792.924      87120        
    392900   392900         3206.4472      306.83364      9621.6695      3066.6967      12688.366      59950.861      87120        
    393000   393000         3207.0171      311.83129      9595.5764      3116.6465      12712.223      59967.013      87120        
    393100   393100         3207.587       295.8422       9600.4129      2956.8411      12557.254      59854.071      87120        
    393200   393200         3208.1652      292.97622      9607.9881      2928.1965      12536.185      59910.483      87120        
    393300   393300         3208.7419      305.30073      9525.7554      3051.3759      12577.131      59663.914      87120        
    393400   393400         3209.3107      298.9294       9588.328       2987.6965      12576.025      59760.901      87120        
    393500   393500         3209.8923      299.77785      9523.8411      2996.1766      12520.018      59577.582      87120        
    393600   393600         3210.4649      292.23133      9514.8699      2920.7516      12435.622      59538.861      87120        
    393700   393700         3211.0396      297.5989       9497.1098      2974.3986      12471.508      59477.715      87120        
    393800   393800         3211.6075      303.65132      9529.4731      3034.8905      12564.364      59552.467      87120        
    393900   393900         3212.1709      298.8705       9578.9173      2987.1079      12566.025      59713.6        87120        
    394000   394000         3212.7461      301.48829      9521.1357      3013.2718      12534.407      59584.997      87120        
    394100   394100         3213.3107      291.42964      9562.0231      2912.7391      12474.762      59672.772      87120        
    394200   394200         3213.8906      300.86974      9548.4165      3007.0895      12555.506      59724.071      87120        
    394300   394300         3214.4642      303.86237      9630.7892      3036.9999      12667.789      60090.227      87120        
    394400   394400         3215.0423      306.98403      9582.024       3068.1998      12650.224      59800.718      87120        
    394500   394500         3215.612       305.52475      9519.97        3053.6148      12573.585      59621.617      87120        
    394600   394600         3216.1868      298.28182      9504.499       2981.2243      12485.723      59535.264      87120        
    394700   394700         3216.7584      292.61422      9538.7464      2924.5785      12463.325      59525.261      87120        
    394800   394800         3217.3263      301.33582      9529.595       3011.7479      12541.343      59610.315      87120        
    394900   394900         3217.8926      304.61348      9510.1258      3044.507       12554.633      59477.308      87120        
    395000   395000         3218.469       297.53815      9543.7082      2973.7915      12517.5        59531.692      87120        
    395100   395100         3219.0299      298.23988      9522.2404      2980.805       12503.045      59505.749      87120        
    395200   395200         3219.596       300.21202      9491.4691      3000.5159      12491.985      59385.895      87120        
    395300   395300         3220.1532      300.14789      9504.5813      2999.875       12504.456      59435.757      87120        
    395400   395400         3220.7216      294.71982      9543.2415      2945.6233      12488.865      59584.696      87120        
    395500   395500         3221.2806      297.75395      9518.0667      2975.9483      12494.015      59524.185      87120        
    395600   395600         3221.8486      300.87899      9549.2122      3007.182       12556.394      59698.187      87120        
    395700   395700         3222.4259      306.06417      9557.3855      3059.0062      12616.392      59681.213      87120        
    395800   395800         3222.9995      305.34223      9582.8421      3051.7906      12634.633      59876.693      87120        
    395900   395900         3223.5691      296.64583      9552.1247      2964.8731      12516.998      59710.255      87120        
    396000   396000         3224.139       290.1784       9606.7206      2900.2333      12506.954      59840.879      87120        
    396100   396100         3224.7067      305.57386      9506.8694      3054.1057      12560.975      59546.047      87120        
    396200   396200         3225.2811      303.01289      9537.5812      3028.5096      12566.091      59618.234      87120        
    396300   396300         3225.8589      299.10142      9542.6529      2989.4158      12532.069      59621.607      87120        
    396400   396400         3226.425       294.97246      9479.6909      2948.1483      12427.839      59381.206      87120        
    396500   396500         3226.9995      288.73728      9530.355       2885.8298      12416.185      59480.371      87120        
    396600   396600         3227.5715      295.90817      9551.9604      2957.5004      12509.461      59615.864      87120        
    396700   396700         3228.1425      302.46286      9543.0132      3023.0123      12566.025      59600.85       87120        
    396800   396800         3228.7134      302.99909      9549.6834      3028.3717      12578.055      59658.379      87120        
    396900   396900         3229.2815      298.1215       9528.1341      2979.6219      12507.756      59550.117      87120        
    397000   397000         3229.8497      294.49792      9534.9668      2943.4055      12478.372      59560.484      87120        
    397100   397100         3230.4096      296.98844      9573.3562      2968.2974      12541.654      59733.952      87120        
    397200   397200         3230.9769      308.73337      9556.8213      3085.6838      12642.505      59681.781      87120        
    397300   397300         3231.5361      304.89179      9570.404       3047.2886      12617.693      59781.187      87120        
    397400   397400         3232.1083      299.23496      9584.5077      2990.7505      12575.258      59854.437      87120        
    397500   397500         3232.6769      297.17178      9555.7501      2970.1298      12525.88       59735.732      87120        
    397600   397600         3233.2455      294.84087      9539.7871      2946.8331      12486.62       59652.045      87120        
    397700   397700         3233.8079      298.34957      9558.7425      2981.9013      12540.644      59728.256      87120        
    397800   397800         3234.3729      305.27837      9540.8686      3051.1523      12592.021      59663.674      87120        
    397900   397900         3234.9394      300.63889      9550.0195      3004.7823      12554.802      59725.074      87120        
    398000   398000         3235.4974      300.36005      9493.9645      3001.9954      12495.96       59411.151      87120        
    398100   398100         3236.0634      297.2916       9504.8387      2971.3273      12476.166      59426.107      87120        
    398200   398200         3236.6283      297.39944      9500.7584      2972.4051      12473.163      59435.103      87120        
    398300   398300         3237.1861      301.99962      9485.7321      3018.3824      12504.114      59445.048      87120        
    398400   398400         3237.7451      294.38853      9549.7387      2942.3122      12492.051      59695.045      87120        
    398500   398500         3238.3119      296.86532      9578.3454      2967.0668      12545.412      59821.319      87120        
    398600   398600         3238.8815      304.90986      9587.5761      3047.4692      12635.045      59848.223      87120        
    398700   398700         3239.4499      307.07467      9560.0536      3069.1057      12629.159      59789.589      87120        
    398800   398800         3240.0175      300.42658      9555.9664      3002.6604      12558.627      59746.452      87120        
    398900   398900         3240.5811      297.84997      9551.8694      2976.908       12528.777      59699.108      87120        
    399000   399000         3241.1542      299.1803       9561.5838      2990.2042      12551.788      59726.937      87120        
    399100   399100         3241.7235      298.1852       9590.1947      2980.2585      12570.453      59868.564      87120        
    399200   399200         3242.2923      302.32245      9545.8935      3021.6089      12567.502      59691.887      87120        
    399300   399300         3242.8611      298.00953      9516.0923      2978.5028      12494.595      59540.396      87120        
    399400   399400         3243.4308      293.06619      9541.4116      2929.0958      12470.507      59632.014      87120        
    399500   399500         3244.0013      302.25695      9535.6705      3020.9543      12556.625      59558.142      87120        
    399600   399600         3244.5701      304.06511      9538.2696      3039.0262      12577.296      59622.56       87120        
    399700   399700         3245.1453      296.7627       9566.3948      2966.0411      12532.436      59711.372      87120        
    399800   399800         3245.7056      300.93175      9536.5641      3007.7093      12544.273      59612.441      87120        
    399900   399900         3246.2778      308.03702      9540.0253      3078.724       12618.749      59693.624      87120        
    400000   400000         3246.8481      304.77081      9597.9971      3046.0795      12644.077      59854.892      87120        
    400100   400100         3247.417       301.79796      9548.5807      3016.3669      12564.948      59694.44       87120        
    400200   400200         3247.9843      299.27858      9507.0545      2991.1865      12498.241      59534.617      87120        
    400300   400300         3248.5507      302.01056      9488.1952      3018.4917      12506.687      59459.039      87120        
    400400   400400         3249.1181      304.28891      9551.5746      3041.263       12592.838      59639.724      87120        
    400500   400500         3249.6859      309.26421      9522.8298      3090.9895      12613.819      59556.39       87120        
    400600   400600         3250.2565      302.73359      9558.0419      3025.7181      12583.76       59703.49       87120        
    400700   400700         3250.8219      298.18567      9568.0329      2980.2632      12548.296      59697.741      87120        
    400800   400800         3251.3892      302.98573      9512.294       3028.2382      12540.532      59570.258      87120        
    400900   400900         3251.9603      293.2539       9558.2277      2930.9719      12489.2        59717.078      87120        
    401000   401000         3252.5349      294.43705      9582.0848      2942.7971      12524.882      59807.971      87120        
    401100   401100         3253.1087      305.58054      9601.1521      3054.1724      12655.325      59925.76       87120        
    401200   401200         3253.6861      304.7067       9588.0992      3045.4387      12633.538      59880.413      87120        
    401300   401300         3254.2547      298.55327      9549.1494      2983.9373      12533.087      59689.459      87120        
    401400   401400         3254.8235      295.91999      9555.9681      2957.6185      12513.587      59642.337      87120        
    401500   401500         3255.3887      301.55944      9560.2839      3013.9829      12574.267      59762.198      87120        
    401600   401600         3255.9543      298.9977       9590.9507      2988.3792      12579.33       59887.508      87120        
    401700   401700         3256.5206      300.44407      9549.2426      3002.8352      12552.078      59606.3        87120        
    401800   401800         3257.0974      294.88707      9573.2142      2947.2949      12520.509      59722.256      87120        
    401900   401900         3257.6714      301.87011      9504.6742      3017.0879      12521.762      59510.632      87120        
    402000   402000         3258.2435      302.09255      9498.5729      3019.3111      12517.884      59453.09       87120        
    402100   402100         3258.8049      298.33834      9513.789       2981.7891      12495.578      59490.653      87120        
    402200   402200         3259.3638      291.86988      9506.2581      2917.1391      12423.397      59468.405      87120        
    402300   402300         3259.9258      292.09455      9542.3445      2919.3845      12461.729      59544.835      87120        
    402400   402400         3260.4898      297.68471      9592.8633      2975.2563      12568.12       59772.229      87120        
    402500   402500         3261.0541      308.66673      9525.8759      3085.0178      12610.894      59542.742      87120        
    402600   402600         3261.6212      296.06447      9615.9221      2959.0625      12574.985      59829.991      87120        
    402700   402700         3262.1848      299.37488      9547.4259      2992.149       12539.575      59678.683      87120        
    402800   402800         3262.7489      295.10847      9548.4562      2949.5076      12497.964      59607.755      87120        
    402900   402900         3263.3127      296.59067      9536.8094      2964.3217      12501.131      59554.48       87120        
    403000   403000         3263.8687      301.8294       9539.2196      3016.681       12555.901      59557.054      87120        
    403100   403100         3264.4306      305.7857       9497.2847      3056.2229      12553.508      59388.817      87120        
    403200   403200         3264.9901      299.00804      9492.3649      2988.4825      12480.847      59399.153      87120        
    403300   403300         3265.56        298.72762      9448.9088      2985.6798      12434.589      59173.685      87120        
    403400   403400         3266.1277      300.7099       9509.2989      3005.492       12514.791      59411.427      87120        
    403500   403500         3266.696       309.9735       9498.3342      3098.0785      12596.413      59369.342      87120        
    403600   403600         3267.2626      299.05547      9522.0026      2988.9566      12510.959      59391.961      87120        
    403700   403700         3267.8243      298.49063      9507.5355      2983.3112      12490.847      59443.391      87120        
    403800   403800         3268.388       302.15135      9505.8368      3019.8988      12525.736      59420.316      87120        
    403900   403900         3268.9506      306.74828      9506.8821      3065.8436      12572.726      59337.37       87120        
    404000   404000         3269.5116      301.96114      9524.3656      3017.9978      12542.363      59416.654      87120        
    404100   404100         3270.0638      297.53176      9467.2642      2973.7276      12440.992      59214.064      87120        
    404200   404200         3270.631       296.14241      9538.0158      2959.8415      12497.857      59451.103      87120        
    404300   404300         3271.2027      301.03648      9532.5213      3008.756       12541.277      59463.18       87120        
    404400   404400         3271.7595      301.47623      9488.4938      3013.1512      12501.645      59306.862      87120        
    404500   404500         3272.33        296.12663      9468.7875      2959.6838      12428.471      59233.17       87120        
    404600   404600         3272.8937      290.81604      9495.3005      2906.6064      12401.907      59283.555      87120        
    404700   404700         3273.4545      300.80195      9482.2033      3006.4121      12488.615      59347.263      87120        
    404800   404800         3274.0059      299.11763      9519.8631      2989.5778      12509.441      59477.561      87120        
    404900   404900         3274.5709      302.19501      9520.941       3020.3352      12541.276      59453.399      87120        
    405000   405000         3275.123       301.01196      9568.1273      3008.5111      12576.638      59645.194      87120        
    405100   405100         3275.6968      302.58335      9584.3291      3024.2166      12608.546      59775.641      87120        
    405200   405200         3276.2738      301.10813      9589.8455      3009.4722      12599.318      59720.713      87120        
    405300   405300         3276.8443      298.38363      9544.2684      2982.2417      12526.51       59567.479      87120        
    405400   405400         3277.3984      293.95729      9520.9097      2938.002       12458.912      59506.309      87120        
    405500   405500         3277.9647      299.36101      9500.0729      2992.0104      12492.083      59350.643      87120        
    405600   405600         3278.522       306.86083      9470.3755      3066.9684      12537.344      59250.076      87120        
    405700   405700         3279.0926      302.46308      9468.5174      3023.0145      12491.532      59253.695      87120        
    405800   405800         3279.6459      287.21198      9488.479       2870.585       12359.064      59245.039      87120        
    405900   405900         3280.209       296.12319      9499.7761      2959.6495      12459.426      59346.227      87120        
    406000   406000         3280.7777      304.85044      9503.0107      3046.8754      12549.886      59467.837      87120        
    406100   406100         3281.344       297.12446      9565.3934      2969.6568      12535.05       59618.303      87120        
    406200   406200         3281.9067      294.69653      9559.3478      2945.3905      12504.738      59662.258      87120        
    406300   406300         3282.4588      299.98443      9518.7123      2998.2413      12516.954      59531.308      87120        
    406400   406400         3283.0223      299.24314      9599.2008      2990.8322      12590.033      59849.99       87120        
    406500   406500         3283.5935      304.98776      9629.1364      3048.2478      12677.384      60033.581      87120        
    406600   406600         3284.1659      303.33018      9625.0685      3031.6808      12656.749      59996.18       87120        
    406700   406700         3284.7335      296.22395      9613.2043      2960.6565      12573.861      59868.987      87120        
    406800   406800         3285.3021      297.03191      9592.6267      2968.7318      12561.358      59815.389      87120        
    406900   406900         3285.8628      301.46361      9554.1445      3013.0251      12567.17       59742.377      87120        
    407000   407000         3286.4219      306.95282      9542.0249      3067.8879      12609.913      59691.716      87120        
    407100   407100         3286.9844      315.24805      9525.7831      3150.7958      12676.579      59659.114      87120        
    407200   407200         3287.5555      304.69483      9502.311       3045.32        12547.631      59454.687      87120        
    407300   407300         3288.129       297.94885      9490.6287      2977.8963      12468.525      59378.084      87120        
    407400   407400         3288.698       298.50583      9489.3622      2983.4632      12472.825      59408.704      87120        
    407500   407500         3289.2537      302.61563      9510.684       3024.5391      12535.223      59476.02       87120        
    407600   407600         3289.8192      299.86295      9564.1342      2997.027       12561.161      59648.502      87120        
    407700   407700         3290.391       295.67316      9557.5001      2955.1516      12512.652      59697.686      87120        
    407800   407800         3290.9472      297.06438      9524.8771      2969.0563      12493.933      59530.446      87120        
    407900   407900         3291.5116      299.68239      9585.7143      2995.2224      12580.937      59813.387      87120        
    408000   408000         3292.0752      305.90804      9642.9128      3057.4457      12700.358      60079.045      87120        
    408100   408100         3292.6448      304.79418      9620.7685      3046.313       12667.082      59998.496      87120        
    408200   408200         3293.2117      299.8892       9606.7835      2997.2894      12604.073      59947.185      87120        
    408300   408300         3293.776       295.17057      9626.7687      2950.1283      12576.897      60034.081      87120        
    408400   408400         3294.336       302.46303      9541.8808      3023.014       12564.895      59689.288      87120        
    408500   408500         3294.8939      296.3587       9532.8124      2962.0033      12494.816      59589.042      87120        
    408600   408600         3295.4513      288.83465      9482.2245      2886.803       12369.028      59380.275      87120        
    408700   408700         3296.0148      292.44916      9463.3533      2922.9288      12386.282      59328.003      87120        
    408800   408800         3296.5746      298.36075      9494.6405      2982.0131      12476.654      59415.667      87120        
    408900   408900         3297.138       300.41423      9519.9109      3002.5369      12522.448      59544.819      87120        
    409000   409000         3297.7086      302.96825      9508.1622      3028.0635      12536.226      59495.331      87120        
    409100   409100         3298.2656      298.85744      9500.7122      2986.9773      12487.69       59422.399      87120        
    409200   409200         3298.8178      293.59777      9486.5962      2934.4087      12421.005      59375.695      87120        
    409300   409300         3299.3712      299.71343      9468.4789      2995.5327      12464.012      59342.368      87120        
    409400   409400         3299.9253      301.67927      9538.5166      3015.1806      12553.697      59598.878      87120        
    409500   409500         3300.4888      304.50414      9541.046       3043.4142      12584.46       59613.619      87120        
    409600   409600         3301.061       299.83391      9589.142       2996.7368      12585.879      59795.931      87120        
    409700   409700         3301.6207      298.53245      9576.9668      2983.7291      12560.696      59761.924      87120        
    409800   409800         3302.1876      297.83585      9552.918       2976.7669      12529.685      59662.932      87120        
    409900   409900         3302.7432      303.74865      9556.6412      3035.8633      12592.504      59641.339      87120        
    410000   410000         3303.3075      305.78296      9562.2592      3056.1955      12618.455      59637.09       87120        
    410100   410100         3303.8703      295.54352      9565.5427      2953.8559      12519.399      59629.07       87120        
    410200   410200         3304.4264      297.64807      9509.8319      2974.8901      12484.722      59457.389      87120        
    410300   410300         3304.9912      303.45396      9484.7419      3032.918       12517.66       59421.56       87120        
    410400   410400         3305.5561      302.46168      9539.1341      3023.0005      12562.135      59603.016      87120        
    410500   410500         3306.121       299.53421      9502.6616      2993.7414      12496.403      59440.108      87120        
    410600   410600         3306.6783      294.66383      9490.4424      2945.0636      12435.506      59442.603      87120        
    410700   410700         3307.2426      300.09712      9538.1381      2999.3675      12537.506      59601.574      87120        
    410800   410800         3307.8134      302.17724      9589.5898      3020.1576      12609.747      59798.435      87120        
    410900   410900         3308.3768      300.34144      9572.9198      3001.8094      12574.729      59824.772      87120        
    411000   411000         3308.9499      290.68214      9597.466       2905.2681      12502.734      59869.902      87120        
    411100   411100         3309.521       293.15859      9615.4588      2930.0192      12545.478      59945.537      87120        
    411200   411200         3310.0867      301.70128      9559.9632      3015.4006      12575.364      59752.191      87120        
    411300   411300         3310.6504      298.10277      9588.2713      2979.4346      12567.706      59745.359      87120        
    411400   411400         3311.211       300.60943      9560.3739      3004.4879      12564.862      59640.353      87120        
    411500   411500         3311.7727      305.33557      9538.2959      3051.724       12590.02       59566.773      87120        
    411600   411600         3312.3353      307.75862      9482.2127      3075.9416      12558.154      59362.039      87120        
    411700   411700         3312.8967      293.19286      9503.9268      2930.3618      12434.289      59380.501      87120        
    411800   411800         3313.4629      295.54626      9510.1438      2953.8832      12464.027      59440.375      87120        
    411900   411900         3314.0229      304.03147      9493.018       3038.69        12531.708      59365.831      87120        
    412000   412000         3314.5766      301.54241      9505.0648      3013.8127      12518.878      59398.969      87120        
    412100   412100         3315.1253      301.99353      9493.8971      3018.3215      12512.219      59359.389      87120        
    412200   412200         3315.6724      290.54623      9534.8158      2903.9096      12438.725      59531.735      87120        
    412300   412300         3316.2283      292.5961       9501.0675      2924.3974      12425.465      59415.782      87120        
    412400   412400         3316.7831      302.91098      9514.5558      3027.491       12542.047      59535.896      87120        
    412500   412500         3317.3338      303.54917      9528.9587      3033.8695      12562.828      59552.051      87120        
    412600   412600         3317.8857      297.60504      9549.3567      2974.46        12523.817      59637.272      87120        
    412700   412700         3318.437       293.80509      9570.7987      2936.4808      12507.28       59722.719      87120        
    412800   412800         3318.9968      304.5641       9529.8879      3044.0135      12573.901      59626.259      87120        
    412900   412900         3319.5504      310.64094      9576.6205      3104.7494      12681.37       59786.655      87120        
    413000   413000         3320.1016      308.11533      9557.1781      3079.5067      12636.685      59688.04       87120        
    413100   413100         3320.6608      298.5135       9576.827       2983.5398      12560.367      59840.869      87120        
    413200   413200         3321.2288      298.2488       9553.0056      2980.8942      12533.9        59751.413      87120        
    413300   413300         3321.7906      302.98398      9529.9713      3028.2207      12558.192      59682.154      87120        
    413400   413400         3322.3585      299.47792      9528.9002      2993.1789      12522.079      59632.493      87120        
    413500   413500         3322.9139      297.72133      9495.9208      2975.6223      12471.543      59477.569      87120        
    413600   413600         3323.4673      296.59905      9516.9071      2964.4055      12481.313      59519.144      87120        
    413700   413700         3324.0224      302.1197       9563.978       3019.5825      12583.561      59721.721      87120        
    413800   413800         3324.5896      305.06786      9546.0386      3049.0484      12595.087      59661.291      87120        
    413900   413900         3325.1351      300.07766      9528.7203      2999.173       12527.893      59600.637      87120        
    414000   414000         3325.6939      299.56376      9496.0895      2994.0367      12490.126      59452.618      87120        
    414100   414100         3326.2445      297.60974      9510.2629      2974.507       12484.77       59417.531      87120        
    414200   414200         3326.8029      296.70129      9558.8117      2965.4274      12524.239      59612.374      87120        
    414300   414300         3327.3579      303.85055      9543.0632      3036.8818      12579.945      59585.545      87120        
    414400   414400         3327.9146      297.67044      9580.0302      2975.1137      12555.144      59703.013      87120        
    414500   414500         3328.4637      291.96353      9531.0747      2918.075       12449.15       59539.481      87120        
    414600   414600         3329.0139      290.75721      9502.7779      2906.0183      12408.796      59345.051      87120        
    414700   414700         3329.5633      296.20065      9539.6459      2960.4236      12500.07       59540.804      87120        
    414800   414800         3330.1251      305.06386      9536.6279      3049.0083      12585.636      59585.111      87120        
    414900   414900         3330.6838      304.95135      9548.3586      3047.8839      12596.242      59599.404      87120        
    415000   415000         3331.2493      299.17236      9534.1364      2990.1249      12524.261      59577.175      87120        
    415100   415100         3331.8025      295.42565      9570.1213      2952.6778      12522.799      59762.984      87120        
    415200   415200         3332.3595      303.81166      9531.0634      3036.4931      12567.557      59617.425      87120        
    415300   415300         3332.9144      301.98981      9551.1499      3018.2843      12569.434      59662.389      87120        
    415400   415400         3333.4659      293.43209      9598.8442      2932.7528      12531.597      59908.061      87120        
    415500   415500         3334.0222      297.86331      9541.9888      2977.0413      12519.03       59630.38       87120        
    415600   415600         3334.5803      303.24811      9554.1029      3030.8605      12584.963      59660.674      87120        
    415700   415700         3335.1514      299.87477      9586.5648      2997.1452      12583.71       59836.038      87120        
    415800   415800         3335.711       298.29725      9541.8507      2981.3785      12523.229      59545.388      87120        
    415900   415900         3336.2731      291.25531      9536.8153      2910.9966      12447.812      59543.131      87120        
    416000   416000         3336.8438      291.67241      9516.7077      2915.1654      12431.873      59463.336      87120        
    416100   416100         3337.3981      304.81987      9516.9753      3046.5697      12563.545      59447.343      87120        
    416200   416200         3337.9361      304.41097      9492.0542      3042.483       12534.537      59411.799      87120        
    416300   416300         3338.4851      298.5053       9480.6718      2983.4578      12464.13       59390.042      87120        
    416400   416400         3339.0527      299.43076      9485.9998      2992.7075      12478.707      59407.551      87120        
    416500   416500         3339.6188      301.28573      9539.8639      3011.2473      12551.111      59634.181      87120        
    416600   416600         3340.1733      309.67986      9504.6829      3095.1437      12599.827      59507.534      87120        
    416700   416700         3340.7262      298.29317      9531.8081      2981.3377      12513.146      59625.845      87120        
    416800   416800         3341.292       300.6357       9497.3407      3004.7504      12502.091      59479.786      87120        
    416900   416900         3341.841       304.04788      9484.7761      3038.854       12523.63       59443.059      87120        
    417000   417000         3342.4011      304.62513      9476.2785      3044.6234      12520.902      59404.562      87120        
    417100   417100         3342.963       295.3504       9506.4703      2951.9257      12458.396      59609.216      87120        
    417200   417200         3343.5219      296.66446      9502.9847      2965.0592      12468.044      59551.229      87120        
    417300   417300         3344.0698      298.6245       9555.5151      2984.6492      12540.164      59743.362      87120        
    417400   417400         3344.6172      298.99137      9573.9415      2988.3159      12562.257      59811.361      87120        
    417500   417500         3345.1764      305.62973      9524.1499      3054.6641      12578.814      59670.777      87120        
    417600   417600         3345.7334      302.93792      9496.9867      3027.7604      12524.747      59500.072      87120        
    417700   417700         3346.3032      292.33889      9504.3825      2921.8267      12426.209      59479.661      87120        
    417800   417800         3346.8544      299.63131      9483.2134      2994.7119      12477.925      59390.754      87120        
    417900   417900         3347.4026      306.52952      9500.4336      3063.6571      12564.091      59455.634      87120        
    418000   418000         3347.9565      298.88394      9536.2248      2987.2422      12523.467      59600.149      87120        
    418100   418100         3348.4958      295.71789      9497.7828      2955.5986      12453.381      59392.032      87120        
    418200   418200         3349.0467      295.0082       9498.7418      2948.5055      12447.247      59388.554      87120        
    418300   418300         3349.5891      305.61685      9494.8699      3054.5353      12549.405      59420.794      87120        
    418400   418400         3350.136       306.10731      9517.4756      3059.4373      12576.913      59540.955      87120        
    418500   418500         3350.6939      299.1266       9515.0534      2989.6675      12504.721      59516.348      87120        
    418600   418600         3351.2555      296.07237      9531.5182      2959.1415      12490.66       59548.092      87120        
    418700   418700         3351.8484      301.16569      9494.3279      3010.0475      12504.375      59466.758      87120        
    418800   418800         3352.394       300.54334      9531.2524      3003.8273      12535.08       59588.194      87120        
    418900   418900         3352.9731      304.8286       9535.8169      3046.657       12582.474      59585.291      87120        
    419000   419000         3353.538       305.27602      9511.5869      3051.1289      12562.716      59585.143      87120        
    419100   419100         3354.0928      294.122        9521.9775      2939.6483      12461.626      59537.729      87120        
    419200   419200         3354.6482      295.26004      9522.5792      2951.0226      12473.602      59598.266      87120        
    419300   419300         3355.1919      306.02377      9470.5581      3058.6023      12529.16       59420.8        87120        
    419400   419400         3355.7381      301.39781      9534.7096      3012.3675      12547.077      59561.756      87120        
    419500   419500         3356.2787      297.84682      9502.9729      2976.8766      12479.849      59511.558      87120        
    419600   419600         3356.8376      289.18673      9521.7673      2890.3219      12412.089      59507.213      87120        
    419700   419700         3357.3894      298.35384      9496.4613      2981.944       12478.405      59477.771      87120        
    419800   419800         3357.9677      301.44982      9522.9825      3012.8872      12535.87       59650.033      87120        
    419900   419900         3358.5242      299.76286      9543.2512      2996.0267      12539.278      59665.202      87120        
    420000   420000         3359.0885      300.46403      9549.9463      3003.0347      12552.981      59697.661      87120        
    420100   420100         3359.6413      305.86611      9497.2607      3057.0265      12554.287      59517.47       87120        
    420200   420200         3360.2024      291.78361      9511.0505      2916.2768      12427.327      59481.016      87120        
    420300   420300         3360.7477      294.13802      9519.4372      2939.8083      12459.246      59508.744      87120        
    420400   420400         3361.3044      300.85709      9533.3496      3006.9632      12540.313      59547.827      87120        
    420500   420500         3361.8515      299.84572      9523.3265      2996.8548      12520.181      59508.169      87120        
    420600   420600         3362.3962      295.68074      9524.8371      2955.2273      12480.064      59425.615      87120        
    420700   420700         3362.9513      298.99646      9493.8739      2988.3668      12482.241      59488.295      87120        
    420800   420800         3363.507       294.37329      9548.7154      2942.1598      12490.875      59669.408      87120        
    420900   420900         3364.0623      306.07592      9511.4331      3059.1236      12570.557      59443.779      87120        
    421000   421000         3364.6107      303.61706      9554.3537      3034.5481      12588.902      59717.021      87120        
    421100   421100         3365.1448      298.68502      9516.9647      2985.2541      12502.219      59495.163      87120        
    421200   421200         3365.6892      297.1855       9503.3593      2970.2669      12473.626      59441.863      87120        
    421300   421300         3366.2456      299.08713      9516.4452      2989.273       12505.718      59567.853      87120        
    421400   421400         3366.793       303.84942      9518.7707      3036.8704      12555.641      59485.504      87120        
    421500   421500         3367.3486      308.34578      9509.4303      3081.81        12591.24       59568.717      87120        
    421600   421600         3367.8975      298.24639      9516.5216      2980.8701      12497.392      59527.228      87120        
    421700   421700         3368.4488      301.0725       9404.1595      3009.1161      12413.276      59091.504      87120        
    421800   421800         3368.9941      297.04435      9485.2828      2968.8561      12454.139      59427.753      87120        
    421900   421900         3369.5482      302.68635      9506.3844      3025.246       12531.63       59414.149      87120        
    422000   422000         3370.1017      302.75823      9537.4581      3025.9644      12563.422      59552.751      87120        
    422100   422100         3370.648       296.99912      9534.5678      2968.4041      12502.972      59539.096      87120        
    422200   422200         3371.1987      295.2793       9480.2089      2951.215       12431.424      59328.737      87120        
    422300   422300         3371.7506      300.69406      9486.6032      3005.3337      12491.937      59396.66       87120        
    422400   422400         3372.2992      309.64929      9499.8471      3094.8381      12594.685      59494.469      87120        
    422500   422500         3372.8548      302.28898      9522.5135      3021.2744      12543.788      59577.95       87120        
    422600   422600         3373.3973      296.1406       9538.6168      2959.8234      12498.44       59542.169      87120        
    422700   422700         3373.9515      303.39541      9492.5386      3032.3328      12524.871      59484.346      87120        
    422800   422800         3374.5032      302.16806      9513.1228      3020.0658      12533.189      59603.441      87120        
    422900   422900         3375.0558      295.37368      9533.1796      2952.1583      12485.338      59603.032      87120        
    423000   423000         3375.5978      293.51243      9551.6998      2933.5558      12485.256      59774.504      87120        
    423100   423100         3376.1517      304.15045      9537.9568      3039.8791      12577.836      59649.921      87120        
    423200   423200         3376.6957      306.37581      9556.3913      3062.1209      12618.512      59727.673      87120        
    423300   423300         3377.2488      302.98703      9523.8969      3028.2511      12552.148      59589.083      87120        
    423400   423400         3377.8075      293.50934      9555.3421      2933.5249      12488.867      59623.393      87120        
    423500   423500         3378.3633      295.87138      9544.5807      2957.1327      12501.713      59698.403      87120        
    423600   423600         3378.9122      298.87293      9548.0041      2987.1321      12535.136      59730.298      87120        
    423700   423700         3379.4658      304.11459      9507.645       3039.5208      12547.166      59556.278      87120        
    423800   423800         3380.01        297.30989      9542.6229      2971.5101      12514.133      59560.114      87120        
    423900   423900         3380.5567      292.60916      9479.0002      2924.528       12403.528      59336.696      87120        
    424000   424000         3381.1018      292.80388      9437.7892      2926.4741      12364.263      59262.377      87120        
    424100   424100         3381.6494      296.91357      9459.8191      2967.549       12427.368      59284.173      87120        
    424200   424200         3382.1938      301.85736      9478.2779      3016.9605      12495.238      59353.594      87120        
    424300   424300         3382.7358      303.37957      9499.0095      3032.1745      12531.184      59518.504      87120        
    424400   424400         3383.277       295.72842      9538.8694      2955.7038      12494.573      59583.485      87120        
    424500   424500         3383.8195      293.94032      9509.0781      2937.8325      12446.911      59562.308      87120        
    424600   424600         3384.3631      299.05823      9533.9903      2988.9842      12522.974      59670.068      87120        
    424700   424700         3384.9123      301.62216      9596.9661      3014.6097      12611.576      59798.463      87120        
    424800   424800         3385.4592      305.58367      9527.3147      3054.2037      12581.518      59631.068      87120        
    424900   424900         3386.0149      297.12477      9530.0339      2969.6599      12499.694      59592.064      87120        
    425000   425000         3386.5629      299.75765      9524.6181      2995.9747      12520.593      59565.855      87120        
    425100   425100         3387.1165      303.12031      9513.2229      3029.5832      12542.806      59501.824      87120        
    425200   425200         3387.6714      295.97536      9534.8478      2958.1719      12493.02       59562.317      87120        
    425300   425300         3388.2215      288.79555      9475.4742      2886.4122      12361.886      59286.814      87120        
    425400   425400         3388.7706      289.42794      9514.6232      2892.7327      12407.356      59445.041      87120        
    425500   425500         3389.3142      297.3151       9512.7588      2971.5621      12484.321      59547.584      87120        
    425600   425600         3389.8672      304.06492      9488.3857      3039.0243      12527.41       59420.849      87120        
    425700   425700         3390.4163      301.02165      9539.8123      3008.6079      12548.42       59679.765      87120        
    425800   425800         3390.965       300.21836      9501.7421      3000.5793      12502.321      59603.127      87120        
    425900   425900         3391.5119      293.78231      9500.1194      2936.2532      12436.373      59455.016      87120        
    426000   426000         3392.059       296.2045       9507.2553      2960.4621      12467.717      59538.534      87120        
    426100   426100         3392.6005      306.94605      9511.3569      3067.8202      12579.177      59507.209      87120        
    426200   426200         3393.1448      305.84962      9517.6046      3056.8618      12574.466      59589.248      87120        
    426300   426300         3393.685       296.59993      9545.9003      2964.4143      12510.315      59651.453      87120        
    426400   426400         3394.2361      296.36138      9526.1385      2962.03        12488.169      59519.902      87120        
    426500   426500         3394.7776      303.42949      9517.6679      3032.6734      12550.341      59584.984      87120        
    426600   426600         3395.3209      306.12956      9541.5257      3059.6597      12601.185      59665.992      87120        
    426700   426700         3395.8743      304.91354      9530.9312      3047.506       12578.437      59568.175      87120        
    426800   426800         3396.424       294.16036      9536.8224      2940.0317      12476.854      59629.038      87120        
    426900   426900         3396.9696      297.1134       9508.2975      2969.5463      12477.844      59469.138      87120        
    427000   427000         3397.5161      300.01661      9536.3714      2998.5629      12534.934      59665.452      87120        
    427100   427100         3398.0614      303.31962      9517.5923      3031.5753      12549.168      59533.911      87120        
    427200   427200         3398.6056      300.46834      9527.1116      3003.0778      12530.189      59561.886      87120        
    427300   427300         3399.1453      294.89193      9496.8694      2947.3434      12444.213      59510.758      87120        
    427400   427400         3399.6866      296.06696      9501.9503      2959.0875      12461.038      59471.889      87120        
    427500   427500         3400.2271      303.84959      9505.1714      3036.8721      12542.044      59516.208      87120        
    427600   427600         3400.7744      302.39999      9519.6751      3022.3839      12542.059      59591.68       87120        
    427700   427700         3401.3218      301.71838      9463.096       3015.5714      12478.667      59375.037      87120        
    427800   427800         3401.8659      296.20063      9518.4435      2960.4235      12478.867      59614.017      87120        
    427900   427900         3402.4026      303.34322      9467.693       3031.8111      12499.504      59342.459      87120        
    428000   428000         3402.9474      296.3303       9537.6179      2961.7195      12499.337      59612.696      87120        
    428100   428100         3403.4896      300.41912      9471.1681      3002.5858      12473.754      59392.165      87120        
    428200   428200         3404.0351      286.84135      9523.0626      2866.8807      12389.943      59485.475      87120        
    428300   428300         3404.5851      298.37796      9495.5009      2982.1851      12477.686      59532.999      87120        
    428400   428400         3405.1376      301.90171      9542.1678      3017.4038      12559.572      59696.389      87120        
    428500   428500         3405.6827      302.58525      9528.9072      3024.2355      12553.143      59600.303      87120        
    428600   428600         3406.2273      296.27758      9511.2249      2961.1925      12472.417      59548.148      87120        
    428700   428700         3406.7662      294.81692      9504.531       2946.5937      12451.125      59428.02       87120        
    428800   428800         3407.3086      305.66694      9523.0063      3055.036       12578.042      59555.628      87120        
    428900   428900         3407.8464      299.54622      9551.3311      2993.8615      12545.193      59629.366      87120        
    429000   429000         3408.3843      303.48587      9449.5307      3033.2369      12482.768      59248.3        87120        
    429100   429100         3408.9229      297.42944      9462.8026      2972.7049      12435.508      59321.074      87120        
    429200   429200         3409.4582      298.81904      9461.7361      2986.5935      12448.33       59288.773      87120        
    429300   429300         3410.0015      305.89175      9492.8209      3057.2828      12550.104      59457.798      87120        
    429400   429400         3410.5387      307.89983      9514.5374      3077.3529      12591.89       59470.089      87120        
    429500   429500         3411.0737      305.64419      9449.8756      3054.8085      12504.684      59257.459      87120        
    429600   429600         3411.6163      293.36184      9499.9109      2932.0507      12431.962      59489.938      87120        
    429700   429700         3412.1533      296.85247      9483.1441      2966.9384      12450.083      59293.735      87120        
    429800   429800         3412.6868      306.24992      9430.9458      3060.8626      12491.808      59183.862      87120        
    429900   429900         3413.2257      299.65664      9502.0754      2994.9651      12497.04       59411.864      87120        
    430000   430000         3413.7697      295.27482      9461.4377      2951.1703      12412.608      59295.245      87120        
    430100   430100         3414.3155      295.55013      9455.3911      2953.9219      12409.313      59312.337      87120        
    430200   430200         3414.8514      302.65907      9467.3815      3024.9733      12492.355      59231.091      87120        
    430300   430300         3415.3973      297.36308      9549.8347      2972.0417      12521.876      59625.933      87120        
    430400   430400         3415.936       301.76873      9483.9218      3016.0747      12499.996      59413.724      87120        
    430500   430500         3416.4804      295.81438      9501.0903      2956.563       12457.653      59361.906      87120        
    430600   430600         3417.0262      299.91427      9521.0344      2997.54        12518.574      59509.8        87120        
    430700   430700         3417.5754      307.69587      9498.8827      3075.3144      12574.197      59327.649      87120        
    430800   430800         3418.1247      297.77765      9503.053       2976.1852      12479.238      59405.085      87120        
    430900   430900         3418.66        294.87986      9488.3982      2947.2228      12435.621      59342.391      87120        
    431000   431000         3419.1904      297.93067      9490.0411      2977.7146      12467.756      59350.74       87120        
    431100   431100         3419.7276      304.56917      9478.0395      3044.0641      12522.104      59425.535      87120        
    431200   431200         3420.2599      300.02732      9498.7192      2998.6699      12497.389      59414.072      87120        
    431300   431300         3420.796       292.5822       9497.5569      2924.2585      12421.815      59479.598      87120        
    431400   431400         3421.3343      299.48249      9454.2774      2993.2245      12447.502      59306.378      87120        
    431500   431500         3421.8726      303.7837       9459.6545      3036.2136      12495.868      59260.513      87120        
    431600   431600         3422.4144      297.41226      9514.4741      2972.5332      12487.007      59565.75       87120        
    431700   431700         3422.9523      291.91391      9523.2547      2917.5791      12440.834      59508.428      87120        
    431800   431800         3423.488       300.65349      9469.077       3004.9283      12474.005      59357.844      87120        
    431900   431900         3424.0249      301.8977       9540.4679      3017.3637      12557.832      59668.092      87120        
    432000   432000         3424.5645      302.92209      9518.5045      3027.6021      12546.107      59513.647      87120        
    432100   432100         3425.1062      297.62666      9493.7162      2974.6761      12468.392      59429.515      87120        
    432200   432200         3425.6317      294.34286      9493.9352      2941.8556      12435.791      59388.224      87120        
    432300   432300         3426.1659      301.71713      9446.5364      3015.559       12462.095      59276.718      87120        
    432400   432400         3426.7017      302.25508      9432.9696      3020.9355      12453.905      59165.639      87120        
    432500   432500         3427.2456      300.87421      9420.1545      3007.1342      12427.289      59077.852      87120        
    432600   432600         3427.782       298.7786       9413.4252      2986.1893      12399.614      59145.474      87120        
    432700   432700         3428.315       295.61016      9461.7539      2954.5219      12416.276      59263.436      87120        
    432800   432800         3428.8475      303.07393      9483.289       3029.1197      12512.409      59403.633      87120        
    432900   432900         3429.3764      312.50512      9437.699       3123.3812      12561.08       59369.463      87120        
    433000   433000         3429.9205      300.08884      9481.6083      2999.2848      12480.893      59354.85       87120        
    433100   433100         3430.4461      296.22131      9498.4746      2960.6301      12459.105      59463.017      87120        
    433200   433200         3430.9688      303.38936      9478.9571      3032.2723      12511.229      59411.335      87120        
    433300   433300         3431.4968      307.50478      9481.344       3073.4045      12554.749      59338.8        87120        
    433400   433400         3432.0303      295.11531      9511.8278      2949.5761      12461.404      59491.604      87120        
    433500   433500         3432.5644      289.46927      9498.5783      2893.1459      12391.724      59364.889      87120        
    433600   433600         3433.1002      300.52798      9445.0749      3003.6738      12448.749      59187.498      87120        
    433700   433700         3433.6318      297.55746      9484.6289      2973.9845      12458.613      59339.488      87120        
    433800   433800         3434.1616      304.07051      9447.8656      3039.0802      12486.946      59155.453      87120        
    433900   433900         3434.6904      298.57077      9498.9889      2984.1122      12483.101      59418.491      87120        
    434000   434000         3435.2226      295.25305      9475.4433      2950.9527      12426.396      59328.888      87120        
    434100   434100         3435.7492      292.37765      9495.9238      2922.214       12418.138      59414.872      87120        
    434200   434200         3436.2754      306.888        9458.5458      3067.24        12525.786      59353.892      87120        
    434300   434300         3436.8025      307.90454      9475.4272      3077.4         12552.827      59407.912      87120        
    434400   434400         3437.3298      298.34851      9506.4224      2981.8908      12488.313      59518.894      87120        
    434500   434500         3437.8623      295.16864      9483.3907      2950.109       12433.5        59379.004      87120        
    434600   434600         3438.3907      295.67929      9508.2061      2955.2128      12463.419      59481.395      87120        
    434700   434700         3438.9091      307.43397      9507.0459      3072.6968      12579.743      59572.557      87120        
    434800   434800         3439.429       299.61902      9511.8352      2994.5891      12506.424      59444.233      87120        
    434900   434900         3439.9485      294.29694      9495.2713      2941.3967      12436.668      59414.963      87120        
    435000   435000         3440.4731      296.37808      9486.1308      2962.197       12448.328      59336.438      87120        
    435100   435100         3441           309.02825      9424.8108      3088.631       12513.442      59155.112      87120        
    435200   435200         3441.5158      299.762        9426.9374      2996.0181      12422.955      59174.623      87120        
    435300   435300         3442.0366      296.85997      9417.1513      2967.0133      12384.165      59044.32       87120        
    435400   435400         3442.5543      296.23745      9483.9232      2960.7914      12444.715      59317.188      87120        
    435500   435500         3443.0807      303.29461      9516.7819      3031.3253      12548.107      59561.189      87120        
    435600   435600         3443.6035      300.61944      9535.3381      3004.5879      12539.926      59613.22       87120        
    435700   435700         3444.1375      296.48932      9509.3169      2963.3088      12472.626      59511.268      87120        
    435800   435800         3444.6643      290.3654       9509.4344      2902.1023      12411.537      59480.972      87120        
    435900   435900         3445.1897      293.94696      9489.1298      2937.8988      12427.029      59400.838      87120        
    436000   436000         3445.7217      301.88822      9524.7728      3017.269       12542.042      59558.692      87120        
    436100   436100         3446.2425      304.95349      9509.7385      3047.9052      12557.644      59496.356      87120        
    436200   436200         3446.7601      304.08114      9433.792       3039.1864      12472.978      59160.403      87120        
    436300   436300         3447.2879      296.35555      9432.8104      2961.9718      12394.782      59180.304      87120        
    436400   436400         3447.8151      297.68259      9439.5382      2975.2351      12414.773      59210.278      87120        
    436500   436500         3448.3449      299.61102      9454.6019      2994.5091      12449.111      59211.364      87120        
    436600   436600         3448.8614      304.35217      9407.6359      3041.8952      12449.531      59072.905      87120        
    436700   436700         3449.3886      299.64936      9429.8788      2994.8923      12424.771      59121.686      87120        
    436800   436800         3449.9181      302.17942      9431.3197      3020.1794      12451.499      59098.961      87120        
    436900   436900         3450.451       299.08446      9462.0183      2989.2463      12451.265      59260.937      87120        
    437000   437000         3450.9734      304.06118      9482.8163      3038.987       12521.803      59347.128      87120        
    437100   437100         3451.4966      311.24365      9488.0184      3110.7733      12598.792      59466.875      87120        
    437200   437200         3452.0109      304.58557      9453.9984      3044.228       12498.226      59268.36       87120        
    437300   437300         3452.5368      295.71544      9491.3303      2955.5741      12446.904      59360.865      87120        
    437400   437400         3453.0543      297.96767      9458.618       2978.0843      12436.702      59259.626      87120        
    437500   437500         3453.5715      299.77774      9501.8763      2996.1755      12498.052      59530.44       87120        
    437600   437600         3454.0993      307.90762      9488.2102      3077.4308      12565.641      59418.796      87120        
    437700   437700         3454.6246      300.00688      9488.2333      2998.4656      12486.699      59352.041      87120        
    437800   437800         3455.1418      293.69608      9477.8617      2935.3913      12413.253      59279.408      87120        
    437900   437900         3455.6653      299.81925      9438.115       2996.5903      12434.705      59117.746      87120        
    438000   438000         3456.1969      302.05419      9464.9245      3018.9278      12483.852      59325.308      87120        
    438100   438100         3456.7092      302.80806      9452.1132      3026.4625      12478.576      59242.113      87120        
    438200   438200         3457.2292      294.18991      9453.2493      2940.327       12393.576      59142.658      87120        
    438300   438300         3457.7519      292.95128      9426.2656      2927.9473      12354.213      59093.503      87120        
    438400   438400         3458.2759      301.98213      9454.3073      3018.2076      12472.515      59284.917      87120        
    438500   438500         3458.7985      308.13315      9444.1955      3079.6848      12523.88       59262.111      87120        
    438600   438600         3459.3175      296.57397      9493.7534      2964.1548      12457.908      59383.342      87120        
    438700   438700         3459.8433      299.46127      9486.8836      2993.0124      12479.896      59372.137      87120        
    438800   438800         3460.3667      303.00171      9504.393       3028.3979      12532.791      59492.081      87120        
    438900   438900         3460.9014      303.44406      9534.6282      3032.819       12567.447      59703.968      87120        
    439000   439000         3461.4286      295.07404      9521.2201      2949.1635      12470.384      59570.237      87120        
    439100   439100         3461.9528      295.67057      9460.0663      2955.1257      12415.192      59309.334      87120        
    439200   439200         3462.4765      299.23983      9482.7803      2990.7992      12473.579      59356.975      87120        
    439300   439300         3462.9878      305.50286      9462.9728      3053.396       12516.369      59323.793      87120        
    439400   439400         3463.5109      298.13361      9486.4015      2979.7429      12466.144      59422.482      87120        
    439500   439500         3464.0304      299.45007      9415.8806      2992.9005      12408.781      59090.789      87120        
    439600   439600         3464.5437      293.0019       9476.2283      2928.4532      12404.681      59297.541      87120        
    439700   439700         3465.0658      307.49728      9437.6593      3073.3296      12510.989      59126.506      87120        
    439800   439800         3465.5961      304.99297      9485.5442      3048.2998      12533.844      59350.323      87120        
    439900   439900         3466.111       303.67193      9413.6265      3035.0965      12448.723      59082.945      87120        
    440000   440000         3466.6283      290.92068      9501.2947      2907.6522      12408.947      59320.303      87120        
    440100   440100         3467.1532      298.86917      9474.0867      2987.0946      12461.181      59319.666      87120        
    440200   440200         3467.669       302.68756      9498.5893      3025.258       12523.847      59390.378      87120        
    440300   440300         3468.1922      308.96913      9465.5385      3088.0402      12553.579      59326.351      87120        
    440400   440400         3468.7047      299.80124      9460.3118      2996.4103      12456.722      59310.823      87120        
    440500   440500         3469.2167      296.78529      9430.5879      2966.2669      12396.855      59167.446      87120        
    440600   440600         3469.7415      296.2192       9491.5208      2960.609       12452.13       59440.869      87120        
    440700   440700         3470.2538      301.08722      9497.8433      3009.2632      12507.107      59434.663      87120        
    440800   440800         3470.7722      304.04042      9434.9338      3038.7794      12473.713      59213.204      87120        
    440900   440900         3471.301       296.96484      9432.8486      2968.0615      12400.91       59161.807      87120        
    441000   441000         3471.8166      295.63756      9452.9166      2954.7958      12407.712      59193.753      87120        
    441100   441100         3472.3421      299.81954      9469.3001      2996.5932      12465.893      59294.272      87120        
    441200   441200         3472.8556      308.99433      9400.8107      3088.2921      12489.103      59125.918      87120        
    441300   441300         3473.3781      296.58337      9429.3365      2964.2488      12393.585      59166.156      87120        
    441400   441400         3473.8889      298.36119      9402.8741      2982.0175      12384.892      59094.689      87120        
    441500   441500         3474.412       296.83707      9466.0834      2966.7844      12432.868      59223.423      87120        
    441600   441600         3474.9289      302.56377      9438.0874      3024.0208      12462.108      59193.978      87120        
    441700   441700         3475.4499      300.01633      9447.1074      2998.56        12445.667      59252.517      87120        
    441800   441800         3475.9752      296.48134      9427.0229      2963.229       12390.252      59151.75       87120        
    441900   441900         3476.4891      285.93923      9486.6838      2857.8643      12344.548      59409.375      87120        
    442000   442000         3477.0016      303.43086      9426.2653      3032.687       12458.952      59111.156      87120        
    442100   442100         3477.5207      304.2691       9441.2025      3041.065       12482.268      59276.649      87120        
    442200   442200         3478.0415      299.69842      9455.1361      2995.3827      12450.519      59334.177      87120        
    442300   442300         3478.5624      297.60401      9431.5688      2974.4498      12406.019      59222.06       87120        
    442400   442400         3479.0819      300.61849      9404.1786      3004.5784      12408.757      59175.946      87120        
    442500   442500         3479.5947      306.22013      9437.4359      3060.5649      12498.001      59219.628      87120        
    442600   442600         3480.1176      306.58255      9440.9178      3064.1871      12505.105      59223.033      87120        
    442700   442700         3480.643       300.57995      9404.0231      3004.1932      12408.216      59106.913      87120        
    442800   442800         3481.1639      291.65779      9468.4406      2915.0193      12383.46       59237.267      87120        
    442900   442900         3481.6865      300.16006      9430.6049      2999.9965      12430.601      59152.775      87120        
    443000   443000         3482.197       300.42962      9439.7109      3002.6908      12442.402      59143.364      87120        
    443100   443100         3482.7123      297.53836      9441.5939      2973.7936      12415.388      59160.29       87120        
    443200   443200         3483.2267      292.84637      9407.0362      2926.8988      12333.935      59022.064      87120        
    443300   443300         3483.7371      292.62296      9397.187       2924.6658      12321.853      59017.788      87120        
    443400   443400         3484.2578      300.66163      9462.6951      3005.0096      12467.705      59300.066      87120        
    443500   443500         3484.779       301.52218      9504.9798      3013.6105      12518.59       59423.784      87120        
    443600   443600         3485.2906      301.17657      9488.4389      3010.1562      12498.595      59449.5        87120        
    443700   443700         3485.8123      294.67435      9459.5897      2945.1688      12404.758      59292.247      87120        
    443800   443800         3486.3273      295.56954      9462.8739      2954.1159      12416.99       59235.602      87120        
    443900   443900         3486.8494      303.41762      9432.4961      3032.5548      12465.051      59179.684      87120        
    444000   444000         3487.3761      300.6398       9430.0752      3004.7914      12434.867      59143.7        87120        
    444100   444100         3487.884       298.02348      9404.4236      2978.6422      12383.066      58982.648      87120        
    444200   444200         3488.4025      301.27518      9379.0351      3011.1418      12390.177      58940.122      87120        
    444300   444300         3488.9163      309.96879      9368.1013      3098.0314      12466.133      58881.894      87120        
    444400   444400         3489.4299      303.94142      9407.0583      3037.7899      12444.848      59054.016      87120        
    444500   444500         3489.9413      296.32273      9420.6571      2961.6438      12382.301      59110.573      87120        
    444600   444600         3490.4581      299.88896      9405.2691      2997.287       12402.556      59067.59       87120        
    444700   444700         3490.9723      303.67375      9420.6201      3035.1147      12455.735      59167.401      87120        
    444800   444800         3491.4889      302.39676      9512.6195      3022.3516      12534.971      59461.257      87120        
    444900   444900         3492.0063      312.60305      9458.1833      3124.36        12582.543      59304.638      87120        
    445000   445000         3492.5222      297.39656      9471.4363      2972.3763      12443.813      59349.751      87120        
    445100   445100         3493.0364      297.86769      9457.1427      2977.0852      12434.228      59213.09       87120        
    445200   445200         3493.5519      300.40775      9452.8207      3002.4722      12455.293      59294.35       87120        
    445300   445300         3494.0652      297.09171      9471.6345      2969.3295      12440.964      59260.502      87120        
    445400   445400         3494.58        305.89969      9375.1891      3057.3622      12432.551      58926.933      87120        
    445500   445500         3495.0973      299.51108      9367.3937      2993.5102      12360.904      58878.295      87120        
    445600   445600         3495.6117      294.80719      9352.7146      2946.4965      12299.211      58786.597      87120        
    445700   445700         3496.1148      297.63698      9419.1291      2974.7793      12393.908      59025.125      87120        
    445800   445800         3496.6269      306.89579      9374.6037      3067.3179      12441.922      58919.229      87120        
    445900   445900         3497.14        300.87327      9383.1973      3007.1249      12390.322      58921.49       87120        
    446000   446000         3497.6496      294.2143       9406.485       2940.5707      12347.056      58953.38       87120        
    446100   446100         3498.1628      302.75334      9365.191       3025.9156      12391.107      58887.818      87120        
    446200   446200         3498.6732      298.47966      9478.6526      2983.2015      12461.854      59207.879      87120        
    446300   446300         3499.1894      307.67141      9466.1546      3075.0699      12541.224      59241.181      87120        
    446400   446400         3499.7104      302.21578      9411.0783      3020.5428      12431.621      59044.475      87120        
    446500   446500         3500.2296      296.9764       9427.6876      2968.177       12395.865      59126.901      87120        
    446600   446600         3500.7505      299.40637      9414.5411      2992.4637      12407.005      59021.164      87120        
    446700   446700         3501.2722      307.1217       9387.6024      3069.5758      12457.178      59082.704      87120        
    446800   446800         3501.7918      293.85951      9464.4093      2937.0248      12401.434      59301.84       87120        
    446900   446900         3502.3074      293.687        9389.5443      2935.3006      12324.845      58956.413      87120        
    447000   447000         3502.814       299.41216      9388.1583      2992.5216      12380.68       59100.309      87120        
    447100   447100         3503.3441      303.16332      9454.3399      3030.0131      12484.353      59258.573      87120        
    447200   447200         3503.8725      301.7547       9445.1009      3015.9344      12461.035      59195.222      87120        
    447300   447300         3504.3989      301.41936      9384.3124      3012.5828      12396.895      59037.188      87120        
    447400   447400         3504.9186      293.68137      9434.5313      2935.2443      12369.776      59129.2        87120        
    447500   447500         3505.4438      305.8686       9382.6582      3057.0515      12439.71       59015.06       87120        
    447600   447600         3505.9619      308.25164      9407.4522      3080.8691      12488.321      59074.896      87120        
    447700   447700         3506.4753      303.76871      9382.9618      3036.0638      12419.026      58989.78       87120        
    447800   447800         3506.9761      296.45804      9416.9536      2962.9961      12379.95       59050.351      87120        
    447900   447900         3507.487       305.09848      9350.7243      3049.3544      12400.079      58826.806      87120        
    448000   448000         3508.0023      298.07838      9411.6735      2979.1909      12390.864      59001.98       87120        
    448100   448100         3508.5104      301.1872       9406.8697      3010.2625      12417.132      59027.842      87120        
    448200   448200         3509.0233      306.00526      9421.3888      3058.4173      12479.806      59137.001      87120        
    448300   448300         3509.5372      299.24411      9454.2036      2990.842       12445.046      59233.353      87120        
    448400   448400         3510.046       302.71062      9357.4043      3025.4886      12382.893      58882.514      87120        
    448500   448500         3510.5577      296.31288      9416.1942      2961.5454      12377.74       59092.735      87120        
    448600   448600         3511.0753      300.8549       9489.1056      3006.9413      12496.047      59319.013      87120        
    448700   448700         3511.5943      305.06136      9488.6552      3048.9834      12537.639      59406.309      87120        
    448800   448800         3512.1027      304.08258      9416.0032      3039.2008      12455.204      59121.677      87120        
    448900   448900         3512.6158      300.51348      9390.9862      3003.5289      12394.515      58944.082      87120        
    449000   449000         3513.1336      297.37492      9400.1568      2972.16        12372.317      58999.708      87120        
    449100   449100         3513.6387      303.65159      9374.5488      3034.8932      12409.442      58979.381      87120        
    449200   449200         3514.1503      312.13348      9370.7305      3119.6668      12490.397      58849.382      87120        
    449300   449300         3514.6603      306.82347      9387.8556      3066.5951      12454.451      58938.691      87120        
    449400   449400         3515.1735      297.03608      9405.2593      2968.7735      12374.033      59059.483      87120        
    449500   449500         3515.6845      293.81292      9446.5622      2936.5591      12383.121      59159.998      87120        
    449600   449600         3516.2069      301.11296      9423.4802      3009.5205      12433.001      59125.797      87120        
    449700   449700         3516.7252      308.96328      9358.3141      3087.9817      12446.296      58885.595      87120        
    449800   449800         3517.2393      298.44329      9398.1824      2982.838       12381.02       58996.073      87120        
    449900   449900         3517.7519      293.59145      9423.2983      2934.3456      12357.644      59147.323      87120        
    450000   450000         3518.2575      298.03918      9433.7715      2978.7991      12412.571      59230.114      87120        
    450100   450100         3518.7651      300.10894      9453.2369      2999.4856      12452.723      59238.863      87120        
    450200   450200         3519.278       300.87508      9466.1688      3007.1429      12473.312      59273.186      87120        
    450300   450300         3519.7941      299.06731      9425.0574      2989.0749      12414.132      59123.737      87120        
    450400   450400         3520.2943      290.01652      9400.2421      2898.6154      12298.857      58955.433      87120        
    450500   450500         3520.8029      291.69965      9439.4533      2915.4377      12354.891      59114.873      87120        
    450600   450600         3521.3147      296.37737      9443.6894      2962.1899      12405.879      59149.237      87120        
    450700   450700         3521.8147      301.95977      9421.1847      3017.984       12439.169      59031.491      87120        
    450800   450800         3522.3243      298.20313      9444.0148      2980.4378      12424.453      59151.53       87120        
    450900   450900         3522.8404      301.39295      9394.7714      3012.3189      12407.09       59011.447      87120        
    451000   451000         3523.3635      297.10729      9379.0719      2969.4852      12348.557      58874.894      87120        
    451100   451100         3523.8634      292.40774      9403.396       2922.5148      12325.911      59009.928      87120        
    451200   451200         3524.3705      301.36255      9447.4079      3012.015       12459.423      59220.033      87120        
    451300   451300         3524.8802      304.9059       9417.0616      3047.4296      12464.491      59106.359      87120        
    451400   451400         3525.3895      294.47723      9467.0954      2943.1986      12410.294      59370.821      87120        
    451500   451500         3525.9099      295.4973       9451.9847      2953.3939      12405.379      59263.029      87120        
    451600   451600         3526.4241      305.57715      9431.3455      3054.1385      12485.484      59238.553      87120        
    451700   451700         3526.9362      311.02954      9419.9064      3108.6333      12528.54       59150.061      87120        
    451800   451800         3527.4485      294.79866      9453.5126      2946.4112      12399.924      59191.667      87120        
    451900   451900         3527.9593      298.75773      9399.5634      2985.9807      12385.544      59045.676      87120        
    452000   452000         3528.4668      305.57917      9340.5197      3054.1587      12394.678      58719.155      87120        
    452100   452100         3528.9752      291.49052      9441.8248      2913.3475      12355.172      59097.294      87120        
    452200   452200         3529.4822      303.30336      9390.6168      3031.4128      12422.03       59000.347      87120        
    452300   452300         3529.9889      307.15363      9401.7014      3069.8949      12471.596      58956.825      87120        
    452400   452400         3530.4962      300.36232      9384.8361      3002.0181      12386.854      58897.588      87120        
    452500   452500         3531.0047      291.54385      9414.915       2913.8805      12328.796      58994.995      87120        
    452600   452600         3531.515       299.90822      9389.0348      2997.4795      12386.514      58951.412      87120        
    452700   452700         3532.0252      300.55505      9444.6015      3003.9443      12448.546      59158.695      87120        
    452800   452800         3532.5264      305.80426      9461.6643      3056.4084      12518.073      59277.379      87120        
    452900   452900         3533.0374      298.83901      9450.7088      2986.7931      12437.502      59221.956      87120        
    453000   453000         3533.5447      294.73392      9431.9946      2945.7642      12377.759      59070.3        87120        
    453100   453100         3534.0535      300.72387      9407.5385      3005.6316      12413.17       59045.878      87120        
    453200   453200         3534.5615      304.61335      9429.3344      3044.5057      12473.84       59140.804      87120        
    453300   453300         3535.0721      302.09474      9420.4945      3019.333       12439.828      59097.646      87120        
    453400   453400         3535.5804      287.97079      9466.1367      2878.169       12344.306      59343.315      87120        
    453500   453500         3536.0868      295.43361      9427.6123      2952.7573      12380.37       59086.135      87120        
    453600   453600         3536.6131      301.63557      9408.8056      3014.7437      12423.549      58972.307      87120        
    453700   453700         3537.1289      301.79288      9372.6038      3016.3161      12388.92       58890.343      87120        
    453800   453800         3537.6312      298.70157      9330.6542      2985.4195      12316.074      58658.872      87120        
    453900   453900         3538.1412      294.12688      9343.6796      2939.697       12283.377      58783.195      87120        
    454000   454000         3538.6397      304.85629      9316.3252      3046.9338      12363.259      58699.827      87120        
    454100   454100         3539.1338      301.79492      9396.8088      3016.3365      12413.145      58937.577      87120        
    454200   454200         3539.6318      301.8916       9390.3299      3017.3027      12407.633      58982.172      87120        
    454300   454300         3540.1378      295.63076      9403.2552      2954.7278      12357.983      58941.345      87120        
    454400   454400         3540.6322      300.25975      9362.347       3000.9929      12363.34       58869.387      87120        
    454500   454500         3541.1369      305.1965       9396.14        3050.334       12446.474      59019.212      87120        
    454600   454600         3541.6423      310.8112       9376.0374      3106.451       12482.488      58946.586      87120        
    454700   454700         3542.1392      296.57185      9400.6695      2964.1337      12364.803      58965.083      87120        
    454800   454800         3542.6431      297.16987      9400.9382      2970.1107      12371.049      58956.175      87120        
    454900   454900         3543.1434      305.73075      9377.048       3055.6737      12432.722      58944.89       87120        
    455000   455000         3543.6488      300.95569      9398.6273      3007.9486      12406.576      59006.525      87120        
    455100   455100         3544.1489      294.56955      9380.4078      2944.1213      12324.529      58918.703      87120        
    455200   455200         3544.6474      288.51397      9392.5807      2883.5979      12276.179      58912.967      87120        
    455300   455300         3545.1468      305.90065      9365.8528      3057.3718      12423.225      58831.477      87120        
    455400   455400         3545.6379      303.15282      9409.8681      3029.9082      12439.776      59080.349      87120        
    455500   455500         3546.1391      296.49865      9447.4693      2963.4021      12410.871      59124.485      87120        
    455600   455600         3546.6424      302.3838       9409.9574      3022.2221      12432.18       59171.858      87120        
    455700   455700         3547.1469      299.014        9442.9972      2988.5421      12431.539      59226.946      87120        
    455800   455800         3547.6431      300.75733      9458.1939      3005.9661      12464.16       59259.345      87120        
    455900   455900         3548.1505      303.22381      9414.0873      3030.6177      12444.705      59146.33       87120        
    456000   456000         3548.6633      294.1753       9442.9624      2940.181       12383.143      59223.324      87120        
    456100   456100         3549.161       297.95144      9367.4496      2977.9222      12345.372      58904.622      87120        
    456200   456200         3549.6687      301.88386      9387.9703      3017.2253      12405.196      58958.703      87120        
    456300   456300         3550.1684      306.98956      9348.6935      3068.2551      12416.949      58829.13       87120        
    456400   456400         3550.668       300.96681      9326.7478      3008.0597      12334.808      58776.016      87120        
    456500   456500         3551.1661      295.2536       9365.8878      2950.9582      12316.846      58860.957      87120        
    456600   456600         3551.6674      302.35748      9339.7088      3021.959       12361.668      58773.107      87120        
    456700   456700         3552.1727      299.95582      9386.7257      2997.9553      12384.681      58968.277      87120        
    456800   456800         3552.6796      305.55127      9374.9766      3053.8798      12428.856      58929.769      87120        
    456900   456900         3553.1946      301.68673      9385.2065      3015.2552      12400.462      58997.099      87120        
    457000   457000         3553.6974      296.48568      9404.3127      2963.2724      12367.585      59067.971      87120        
    457100   457100         3554.198       296.06733      9452.1143      2959.0912      12411.205      59192.83       87120        
    457200   457200         3554.7074      309.32333      9403.1186      3091.5803      12494.699      59156.18       87120        
    457300   457300         3555.2083      303.19494      9447.753       3030.3291      12478.082      59245.232      87120        
    457400   457400         3555.7117      299.40551      9442.1469      2992.4552      12434.602      59236.977      87120        
    457500   457500         3556.2132      297.82919      9410.4357      2976.7003      12387.136      59132.887      87120        
    457600   457600         3556.7152      290.92632      9418.8693      2907.7085      12326.578      59066.783      87120        
    457700   457700         3557.2135      307.1371       9323.2386      3069.7297      12392.968      58805.926      87120        
    457800   457800         3557.7124      305.00411      9378.4114      3048.4112      12426.823      58983.277      87120        
    457900   457900         3558.2102      305.78334      9319.6033      3056.1993      12375.803      58722.985      87120        
    458000   458000         3558.7094      294.75274      9379.7861      2945.9523      12325.738      58900.443      87120        
    458100   458100         3559.2073      297.77515      9379.1246      2976.1602      12355.285      58890.372      87120        
    458200   458200         3559.7055      297.20249      9437.2382      2970.4367      12407.675      59131.31       87120        
    458300   458300         3560.2064      311.8261       9381.2699      3116.5946      12497.864      58964.457      87120        
    458400   458400         3560.7156      300.40217      9447.4502      3002.4164      12449.867      59208.549      87120        
    458500   458500         3561.2202      298.52917      9409.7289      2983.6964      12393.425      59066.811      87120        
    458600   458600         3561.7249      300.78203      9390.4699      3006.2129      12396.683      58941.305      87120        
    458700   458700         3562.228       302.48467      9408.4093      3023.2303      12431.64       59126.489      87120        
    458800   458800         3562.734       304.00903      9452.2744      3038.4657      12490.74       59262.545      87120        
    458900   458900         3563.229       303.43588      9422.3582      3032.7373      12455.095      59083.534      87120        
    459000   459000         3563.7322      289.39743      9407.9092      2892.4278      12300.337      59014.148      87120        
    459100   459100         3564.2288      299.31863      9322.2813      2991.5868      12313.868      58612.544      87120        
    459200   459200         3564.7169      303.32788      9280.158       3031.6579      12311.816      58437.886      87120        
    459300   459300         3565.2191      294.50088      9325.4451      2943.435       12268.88       58625.657      87120        
    459400   459400         3565.709       295.61834      9353.517       2954.6037      12308.121      58743.262      87120        
    459500   459500         3566.2089      309.24527      9332.8451      3090.8001      12423.645      58786.785      87120        
    459600   459600         3566.7183      305.54479      9341.5905      3053.8151      12395.406      58782.511      87120        
    459700   459700         3567.2206      298.39114      9379.7278      2982.3168      12362.045      58912.948      87120        
    459800   459800         3567.7129      296.56192      9443.4651      2964.0344      12407.5        59197.713      87120        
    459900   459900         3568.2135      301.19217      9459.52        3010.3121      12469.832      59288.823      87120        
    460000   460000         3568.7119      298.57429      9498.5198      2984.1474      12482.667      59440.642      87120        
    460100   460100         3569.2056      294.6585       9458.9707      2945.0104      12403.981      59259.723      87120        
    460200   460200         3569.7005      296.09461      9426.7011      2959.3638      12386.065      59143.835      87120        
    460300   460300         3570.2017      305.28733      9402.5325      3051.2419      12453.774      59079.415      87120        
    460400   460400         3570.6998      300.56944      9437.1938      3004.0882      12441.282      59097.765      87120        
    460500   460500         3571.1917      298.4732       9387.9832      2983.137       12371.12       58955.389      87120        
    460600   460600         3571.6867      297.76139      9364.8488      2976.0227      12340.872      58890.815      87120        
    460700   460700         3572.1833      299.65853      9348.9916      2994.984       12343.976      58782.861      87120        
    460800   460800         3572.6815      303.30741      9326.1995      3031.4533      12357.653      58774.793      87120        
    460900   460900         3573.1795      303.29474      9336.8486      3031.3266      12368.175      58782.962      87120        
    461000   461000         3573.668       302.76412      9369.0548      3026.0233      12395.078      58842.873      87120        
    461100   461100         3574.1607      298.53107      9432.1194      2983.7153      12415.835      59118.753      87120        
    461200   461200         3574.6497      297.24988      9390.7329      2970.9103      12361.643      58926.564      87120        
    461300   461300         3575.149       293.95297      9393.8169      2937.9588      12331.776      58935.411      87120        
    461400   461400         3575.6389      298.58753      9412.7237      2984.2796      12397.003      58998.907      87120        
    461500   461500         3576.1396      306.57186      9416.4223      3064.0803      12480.503      59147.44       87120        
    461600   461600         3576.6379      300.85431      9436.0809      3006.9354      12443.016      59144.085      87120        
    461700   461700         3577.1445      297.48385      9421.9999      2973.2488      12395.249      59058.548      87120        
    461800   461800         3577.636       299.05544      9382.9105      2988.9563      12371.867      58928.544      87120        
    461900   461900         3578.1356      295.4308       9388.9193      2952.7293      12341.649      58914.138      87120        
    462000   462000         3578.637       296.24772      9341.3432      2960.8941      12302.237      58777.178      87120        
    462100   462100         3579.1269      295.99885      9362.6235      2958.4068      12321.03       58786.068      87120        
    462200   462200         3579.621       304.1162       9367.4397      3039.5369      12406.977      58809.069      87120        
    462300   462300         3580.1166      304.84405      9354.4705      3046.8114      12401.282      58759.019      87120        
    462400   462400         3580.6074      293.51388      9402.1739      2933.5703      12335.744      58901.56       87120        
    462500   462500         3581.1116      298.47227      9377.6426      2983.1277      12360.77       58881.107      87120        
    462600   462600         3581.6149      300.33915      9413.299       3001.7865      12415.085      59032.946      87120        
    462700   462700         3582.1195      301.09476      9425.8847      3009.3385      12435.223      59058.08       87120        
    462800   462800         3582.6137      293.65471      9442.2543      2934.9778      12377.232      59097.954      87120        
    462900   462900         3583.1185      288.02242      9397.1457      2878.685       12275.831      58936.951      87120        
    463000   463000         3583.6101      298.00867      9357.0718      2978.4941      12335.566      58880.515      87120        
    463100   463100         3584.1138      303.34191      9350.6938      3031.7981      12382.492      58839.977      87120        
    463200   463200         3584.6104      302.25263      9354.5282      3020.911       12375.439      58794.12       87120        
    463300   463300         3585.0969      297.43764      9383.9938      2972.7869      12356.781      58914.301      87120        
    463400   463400         3585.5951      296.66632      9378.9044      2965.0779      12343.982      58793.613      87120        
    463500   463500         3586.0894      302.73221      9361.548       3025.7043      12387.252      58750.48       87120        
    463600   463600         3586.5782      303.97045      9350.8278      3038.0801      12388.908      58813.757      87120        
    463700   463700         3587.0754      296.58364      9383.7515      2964.2515      12348.003      58912.977      87120        
    463800   463800         3587.5705      294.79467      9401.6263      2946.3713      12347.998      59015.446      87120        
    463900   463900         3588.0662      306.81674      9377.2834      3066.5278      12443.811      58910.332      87120        
    464000   464000         3588.5638      302.51223      9424.6811      3023.5057      12448.187      59049.272      87120        
    464100   464100         3589.0578      300.17444      9393.4167      3000.1403      12393.557      58968.465      87120        
    464200   464200         3589.5529      299.76087      9378.1302      2996.0068      12374.137      58844.6        87120        
    464300   464300         3590.0431      300.30008      9366.2376      3001.396       12367.634      58836.959      87120        
    464400   464400         3590.5306      303.15071      9363.496       3029.8871      12393.383      58889.564      87120        
    464500   464500         3591.0223      308.98264      9345.4402      3088.1752      12433.615      58721.17       87120        
    464600   464600         3591.5185      300.75758      9380.4232      3005.9686      12386.392      58853.266      87120        
    464700   464700         3592.0062      293.08945      9400.3757      2929.3282      12329.704      58982.218      87120        
    464800   464800         3592.5036      302.76157      9370.7451      3025.9978      12396.743      58834.067      87120        
    464900   464900         3593.0006      307.20481      9347.7198      3070.4065      12418.126      58819.168      87120        
    465000   465000         3593.4935      301.07466      9370.2638      3009.1377      12379.402      58844.617      87120        
    465100   465100         3593.9763      299.32195      9369.4218      2991.62        12361.042      58868.663      87120        
    465200   465200         3594.4706      298.58642      9393.5205      2984.2685      12377.789      58916.664      87120        
    465300   465300         3594.9628      298.69212      9397.2136      2985.325       12382.539      58940.431      87120        
    465400   465400         3595.4538      303.11936      9378.3732      3029.5738      12407.947      58884.91       87120        
    465500   465500         3595.9538      306.89947      9373.6628      3067.3547      12441.017      58922.16       87120        
    465600   465600         3596.4476      303.75552      9374.3835      3035.932       12410.315      58887.039      87120        
    465700   465700         3596.9308      295.62341      9344.5333      2954.6543      12299.188      58737.23       87120        
    465800   465800         3597.4231      292.79079      9375.0406      2926.3432      12301.384      58847.605      87120        
    465900   465900         3597.9177      303.863        9363.016       3037.0062      12400.022      58826.595      87120        
    466000   466000         3598.4123      303.62865      9371.3731      3034.6639      12406.037      58843.317      87120        
    466100   466100         3598.8991      300.3098       9345.6921      3001.4932      12347.185      58797.089      87120        
    466200   466200         3599.4065      296.94785      9392.0919      2967.8916      12359.984      58949.318      87120        
    466300   466300         3599.9016      301.18278      9379.9551      3010.2184      12390.173      58850.489      87120        
    466400   466400         3600.3971      300.6426       9412.6699      3004.8194      12417.489      59074.927      87120        
    466500   466500         3600.8923      302.85561      9380.7952      3026.9377      12407.733      58884.864      87120        
    466600   466600         3601.3849      297.21099      9416.8038      2970.5217      12387.325      59033.996      87120        
    466700   466700         3601.8854      294.92732      9411.1755      2947.6971      12358.873      58939.321      87120        
    466800   466800         3602.3814      296.89379      9414.7031      2967.3513      12382.054      58947.744      87120        
    466900   466900         3602.8855      308.02401      9369.4668      3078.5941      12448.061      58884.31       87120        
    467000   467000         3603.3879      304.95568      9349.3902      3047.9271      12397.317      58777.289      87120        
    467100   467100         3603.8774      293.77998      9383.3912      2936.2299      12319.621      58794.928      87120        
    467200   467200         3604.375       294.82553      9390.0181      2946.6798      12336.698      58847.799      87120        
    467300   467300         3604.8652      300.7139       9356.0871      3005.532       12361.619      58788.235      87120        
    467400   467400         3605.3516      304.07926      9322.2992      3039.1676      12361.467      58685.698      87120        
    467500   467500         3605.8454      296.65011      9376.7931      2964.9158      12341.709      58872.61       87120        
    467600   467600         3606.3441      299.62797      9331.4753      2994.6786      12326.154      58730.512      87120        
    467700   467700         3606.8333      293.03712      9399.0566      2928.8052      12327.862      59000.64       87120        
    467800   467800         3607.3302      305.19164      9391.2639      3050.2855      12441.549      58952.647      87120        
    467900   467900         3607.8269      307.30259      9387.7764      3071.3837      12459.16       58943.165      87120        
    468000   468000         3608.3146      297.38024      9405.9094      2972.2132      12378.123      58963.763      87120        
    468100   468100         3608.8027      297.47897      9378.9864      2973.2         12352.186      58891.846      87120        
    468200   468200         3609.2829      295.79615      9439.1814      2956.3808      12395.562      59082.261      87120        
    468300   468300         3609.774       300.27695      9410.4606      3001.1648      12411.625      58970.356      87120        
    468400   468400         3610.2694      294.11253      9353.0061      2939.5536      12292.56       58741.249      87120        
    468500   468500         3610.7587      291.12885      9348.2317      2909.7327      12257.964      58741.41       87120        
    468600   468600         3611.2562      298.0387       9367.8144      2978.7943      12346.609      58799.782      87120        
    468700   468700         3611.75        301.10695      9383.3741      3009.4604      12392.834      58934.559      87120        
    468800   468800         3612.2472      301.01133      9349.4845      3008.5047      12357.989      58793.073      87120        
    468900   468900         3612.7409      296.65859      9355.3098      2965.0006      12320.31       58838.403      87120        
    469000   469000         3613.2374      296.99048      9354.6953      2968.3177      12323.013      58759.245      87120        
    469100   469100         3613.7342      307.44994      9355.519       3072.8564      12428.375      58881.868      87120        
    469200   469200         3614.2247      302.51123      9406.7823      3023.4957      12430.278      58997.121      87120        
    469300   469300         3614.715       296.08934      9434.6789      2959.3111      12393.99       59149.708      87120        
    469400   469400         3615.1963      295.0756       9407.6264      2949.1792      12356.806      59040.399      87120        
    469500   469500         3615.6882      301.80606      9380.154       3016.4478      12396.602      58974.941      87120        
    469600   469600         3616.174       304.30305      9405.2821      3041.4043      12446.686      59033.609      87120        
    469700   469700         3616.6645      298.9464       9417.4446      2987.8665      12405.311      59070.117      87120        
    469800   469800         3617.1584      290.55747      9427.7761      2904.022       12331.798      59051.143      87120        
    469900   469900         3617.6413      301.18691      9359.7748      3010.2596      12370.034      58803.18       87120        
    470000   470000         3618.1348      304.14042      9379.8598      3039.7789      12419.639      58871.763      87120        
    470100   470100         3618.6294      304.55019      9346.9372      3043.8744      12390.812      58739.533      87120        
    470200   470200         3619.1154      296.04314      9404.236       2958.8494      12363.085      58983.888      87120        
    470300   470300         3619.6037      304.42071      9350.4441      3042.5803      12393.024      58721.867      87120        
    470400   470400         3620.1028      303.1176       9373.9714      3029.5561      12403.528      58820.902      87120        
    470500   470500         3620.5817      301.95895      9360.661       3017.9758      12378.637      58798.5        87120        
    470600   470600         3621.0728      297.62489      9370.6832      2974.6584      12345.342      58796.467      87120        
    470700   470700         3621.5594      297.09619      9404.8495      2969.3743      12374.224      58953.409      87120        
    470800   470800         3622.0489      305.7228       9394.3402      3055.5943      12449.934      58959.369      87120        
    470900   470900         3622.5455      303.43013      9403.207       3032.6798      12435.887      59018.612      87120        
    471000   471000         3623.0297      300.45936      9334.0464      3002.988       12337.034      58761.236      87120        
    471100   471100         3623.5252      300.40144      9328.5796      3002.4091      12330.989      58651.799      87120        
    471200   471200         3624.0133      298.82036      9361.6218      2986.6068      12348.229      58811.661      87120        
    471300   471300         3624.4929      307.68324      9313.4         3075.1881      12388.588      58693.356      87120        
    471400   471400         3624.9938      306.31892      9376.1938      3061.5523      12437.746      58899.207      87120        
    471500   471500         3625.4817      305.9457       9414.297       3057.822       12472.119      59041.235      87120        
    471600   471600         3625.9635      297.57503      9399.359       2974.1601      12373.519      58896.074      87120        
    471700   471700         3626.4526      295.51037      9372.5522      2953.5245      12326.077      58819.609      87120        
    471800   471800         3626.9417      301.60693      9342.8967      3014.4575      12357.354      58754.426      87120        
    471900   471900         3627.4215      302.58477      9372.2853      3024.2307      12396.516      58744.304      87120        
    472000   472000         3627.9112      310.13105      9399.5187      3099.6532      12499.172      58963.055      87120        
    472100   472100         3628.3976      309.35725      9358.5123      3091.9194      12450.432      58800.931      87120        
    472200   472200         3628.8849      301.20247      9361.5792      3010.4151      12371.994      58800.542      87120        
    472300   472300         3629.3712      300.74755      9347.7781      3005.8683      12353.646      58735.626      87120        
    472400   472400         3629.8587      297.20958      9397.5651      2970.5075      12368.073      58880.88       87120        
    472500   472500         3630.336       303.8756       9391.6695      3037.1321      12428.802      58991.269      87120        
    472600   472600         3630.8237      309.22411      9341.0034      3090.5886      12431.592      58753.488      87120        
    472700   472700         3631.3127      293.7166       9372.3207      2935.5964      12307.917      58820.763      87120        
    472800   472800         3631.8066      292.89886      9390.9897      2927.4234      12318.413      58951.138      87120        
    472900   472900         3632.2949      301.97741      9381.3322      3018.1604      12399.493      58859.877      87120        
    473000   473000         3632.7902      303.24732      9376.2883      3030.8527      12407.141      58827.804      87120        
    473100   473100         3633.2771      300.11723      9351.3044      2999.5685      12350.873      58784.119      87120        
    473200   473200         3633.7551      297.83323      9364.971       2976.7407      12341.712      58779.853      87120        
    473300   473300         3634.2424      301.18199      9361.8383      3010.2104      12372.049      58858.239      87120        
    473400   473400         3634.7301      298.26909      9399.1197      2981.097       12380.217      58971.376      87120        
    473500   473500         3635.2202      295.84398      9382.0749      2956.8589      12338.934      58948.649      87120        
    473600   473600         3635.7023      290.04493      9401.3459      2898.8993      12300.245      58949.338      87120        
    473700   473700         3636.1943      300.22031      9429.9179      3000.5988      12430.517      59100.592      87120        
    473800   473800         3636.6822      305.27153      9400.8156      3051.0839      12451.9        59014.292      87120        
    473900   473900         3637.1719      297.35754      9398.0617      2971.9864      12370.048      58993.451      87120        
    474000   474000         3637.6599      294.70125      9360.5268      2945.4377      12305.964      58770.68       87120        
    474100   474100         3638.1389      299.07868      9353.2247      2989.1885      12342.413      58795.07       87120        
    474200   474200         3638.6229      306.26499      9336.091       3061.0133      12397.104      58687.692      87120        
    474300   474300         3639.1058      301.33185      9320.4027      3011.7082      12332.111      58629.24       87120        
    474400   474400         3639.5791      300.70236      9324.1366      3005.4167      12329.553      58683.668      87120        
    474500   474500         3640.0625      298.95584      9314.7651      2987.9608      12302.726      58539.491      87120        
    474600   474600         3640.5466      297.33101      9329.1214      2971.7212      12300.843      58651.379      87120        
    474700   474700         3641.0225      302.33153      9386.268       3021.6997      12407.968      58868.276      87120        
    474800   474800         3641.5086      308.09076      9371.7973      3079.2612      12451.059      58836.946      87120        
    474900   474900         3641.988       300.40741      9400.4573      3002.4688      12402.926      58881.85       87120        
    475000   475000         3642.4731      300.18795      9384.2093      3000.2753      12384.485      58838.274      87120        
    475100   475100         3642.9629      299.26277      9386.8448      2991.0284      12377.873      58939.044      87120        
    475200   475200         3643.4487      300.21053      9383.4889      3000.501       12383.99       58868.152      87120        
    475300   475300         3643.953       302.2484       9408.5801      3020.8688      12429.449      58959.891      87120        
    475400   475400         3644.4484      307.95153      9400.7273      3077.8696      12478.597      58976.473      87120        
    475500   475500         3644.9413      295.5868       9450.7275      2954.2884      12405.016      59066.194      87120        
    475600   475600         3645.4395      302.0764       9347.8743      3019.1498      12367.024      58752.652      87120        
    475700   475700         3645.9352      294.91874      9416.6146      2947.6114      12364.226      58980.463      87120        
    475800   475800         3646.4362      301.37062      9447.5931      3012.0957      12459.689      58998.788      87120        
    475900   475900         3646.9357      304.01457      9426.9059      3038.521       12465.427      59010.41       87120        
    476000   476000         3647.4284      301.00631      9376.3065      3008.4545      12384.761      58783.645      87120        
    476100   476100         3647.9242      296.01084      9384.2356      2958.5266      12342.762      58768.07       87120        
    476200   476200         3648.412       302.4798       9350.0695      3023.1816      12373.251      58670.547      87120        
    476300   476300         3648.9062      312.52892      9342.2441      3123.619       12465.863      58609.322      87120        
    476400   476400         3649.402       300.46761      9351.5491      3003.0704      12354.62       58691.56       87120        
    476500   476500         3649.8942      296.07678      9352.8801      2959.1856      12312.066      58730.923      87120        
    476600   476600         3650.3853      298.77091      9360.3693      2986.1125      12346.482      58735.391      87120        
    476700   476700         3650.8863      300.51134      9377.2371      3003.5075      12380.745      58784.476      87120        
    476800   476800         3651.3776      303.29413      9392.101       3031.3205      12423.422      58931.321      87120        
    476900   476900         3651.8776      300.79431      9390.8672      3006.3356      12397.203      58889.056      87120        
    477000   477000         3652.368       293.13384      9379.3646      2929.772       12309.137      58822.477      87120        
    477100   477100         3652.865       298.13946      9350.9174      2979.8014      12330.719      58721.589      87120        
    477200   477200         3653.3543      304.33122      9362.4976      3041.6859      12404.183      58758.129      87120        
    477300   477300         3653.8526      301.57174      9368.8282      3014.1058      12382.934      58766.882      87120        
    477400   477400         3654.3389      301.73937      9324.6238      3015.7813      12340.405      58606.948      87120        
    477500   477500         3654.834       297.86569      9330.5739      2977.0652      12307.639      58525.46       87120        
    477600   477600         3655.3237      302.38058      9328.3462      3022.1899      12350.536      58597.514      87120        
    477700   477700         3655.8104      309.61261      9330.8054      3094.4716      12425.277      58631.705      87120        
    477800   477800         3656.2976      299.60671      9372.5563      2994.4661      12367.022      58745.485      87120        
    477900   477900         3656.7937      299.09272      9356.5355      2989.3289      12345.864      58716          87120        
    478000   478000         3657.2845      299.67241      9375.7466      2995.1227      12370.869      58757.404      87120        
    478100   478100         3657.7798      303.1945       9360.7934      3030.3248      12391.118      58760.704      87120        
    478200   478200         3658.2682      296.20262      9425.131       2960.4433      12385.574      59001.107      87120        
    478300   478300         3658.7553      293.74366      9428.5815      2935.8669      12364.448      59030.519      87120        
    478400   478400         3659.2434      302.49556      9419.5499      3023.339       12442.889      58955.893      87120        
    478500   478500         3659.7348      307.43353      9365.7735      3072.6924      12438.466      58812.733      87120        
    478600   478600         3660.2225      298.60952      9358.5121      2984.4995      12343.012      58802.167      87120        
    478700   478700         3660.7519      302.86387      9284.9427      3027.0202      12311.963      58455.971      87120        
    478800   478800         3661.2828      301.18187      9297.3372      3010.2092      12307.546      58535.68       87120        
    478900   478900         3661.7806      295.84329      9378.8871      2956.8519      12335.739      58765.534      87120        
    479000   479000         3662.2513      310.33311      9336.5413      3101.6727      12438.214      58692.257      87120        
    479100   479100         3662.7337      306.38352      9321.6748      3062.1979      12383.873      58649.588      87120        
    479200   479200         3663.208       298.19396      9356.2458      2980.3461      12336.592      58740.245      87120        
    479300   479300         3663.6923      298.78916      9355.5217      2986.2949      12341.817      58820.964      87120        
    479400   479400         3664.169       297.77838      9383.0277      2976.1925      12359.22       58885.232      87120        
    479500   479500         3664.656       309.5169       9331.4817      3093.515       12424.997      58702.736      87120        
    479600   479600         3665.1363      295.38896      9384.5436      2952.3111      12336.855      58888.136      87120        
    479700   479700         3665.6228      293.0373       9390.0343      2928.807       12318.841      58835.485      87120        
    479800   479800         3666.1017      300.67563      9376.4885      3005.1495      12381.638      58827.197      87120        
    479900   479900         3666.5825      301.54603      9393.3674      3013.8489      12407.216      58934.514      87120        
    480000   480000         3667.0762      298.98522      9432.6028      2988.2545      12420.857      59024.414      87120        
    480100   480100         3667.5603      304.67348      9402.4945      3045.1066      12447.601      58979.087      87120        
    480200   480200         3668.0483      302.49906      9368.93        3023.3741      12392.304      58777.096      87120        
    480300   480300         3668.5254      290.73945      9397.1035      2905.8408      12302.944      58859.711      87120        
    480400   480400         3669           300.16212      9321.805       3000.0172      12321.822      58636.037      87120        
    480500   480500         3669.4725      306.7911       9305.6193      3066.2716      12371.891      58491.731      87120        
    480600   480600         3669.9555      300.50286      9328.2688      3003.4227      12331.691      58633.058      87120        
    480700   480700         3670.4236      288.91424      9319.425       2887.5984      12207.023      58570.298      87120        
    480800   480800         3670.8988      295.56883      9257.8184      2954.1088      12211.927      58315.252      87120        
    480900   480900         3671.3753      298.05531      9343.3322      2978.9604      12322.293      58729.839      87120        
    481000   481000         3671.8551      302.45746      9354.6335      3022.9583      12377.592      58717.72       87120        
    481100   481100         3672.3322      303.87883      9321.8955      3037.1644      12359.06       58647.394      87120        
    481200   481200         3672.8056      294.54969      9353.154       2943.9229      12297.077      58811.809      87120        
    481300   481300         3673.2835      292.09355      9410.4456      2919.3745      12329.82       58910.503      87120        
    481400   481400         3673.7718      300.69085      9405.166       3005.3016      12410.468      59016.377      87120        
    481500   481500         3674.2566      302.96637      9359.5707      3028.0447      12387.615      58789.174      87120        
    481600   481600         3674.7483      300.2556       9340.7945      3000.9515      12341.746      58733.648      87120        
    481700   481700         3675.2269      296.77566      9346.7173      2966.1706      12312.888      58783.719      87120        
    481800   481800         3675.7036      303.68063      9318.358       3035.1835      12353.542      58612.387      87120        
    481900   481900         3676.1786      310.03226      9293.5316      3098.6658      12392.197      58571.828      87120        
    482000   482000         3676.6611      297.56394      9338.2792      2974.0493      12312.328      58610.639      87120        
    482100   482100         3677.1334      294.24807      9356.6707      2940.9083      12297.579      58683.318      87120        
    482200   482200         3677.6066      299.54295      9365.4136      2993.8288      12359.242      58807.255      87120        
    482300   482300         3678.0813      300.39967      9381.282       3002.3914      12383.673      58738.058      87120        
    482400   482400         3678.5536      303.09701      9355.1541      3029.3504      12384.504      58664.118      87120        
    482500   482500         3679.0229      294.63274      9371.2421      2944.7529      12315.995      58801.394      87120        
    482600   482600         3679.4926      290.97675      9370.337       2908.2125      12278.55       58766.502      87120        
    482700   482700         3679.9683      302.5222       9378.753       3023.6053      12402.358      58858.378      87120        
    482800   482800         3680.4454      300.89345      9408.6695      3007.3266      12415.996      58959.323      87120        
    482900   482900         3680.9137      298.89316      9383.5822      2987.3343      12370.916      58889.492      87120        
    483000   483000         3681.3899      297.80544      9343.4972      2976.463       12319.96       58731.961      87120        
    483100   483100         3681.858       294.64777      9360.8326      2944.9032      12305.736      58862.155      87120        
    483200   483200         3682.3389      308.99919      9334.9153      3088.3407      12423.256      58726.751      87120        
    483300   483300         3682.8148      305.99999      9357.3561      3058.3646      12415.721      58728.858      87120        
    483400   483400         3683.2975      298.98928      9353.2748      2988.295       12341.57       58717.397      87120        
    483500   483500         3683.7722      299.70838      9329.8682      2995.4822      12325.35       58518.509      87120        
    483600   483600         3684.2426      300.37688      9349.5502      3002.1636      12351.714      58643.404      87120        
    483700   483700         3684.721       309.42643      9342.4151      3092.6107      12435.026      58649.228      87120        
    483800   483800         3685.1879      305.96992      9317.5228      3058.0641      12375.587      58473.249      87120        
    483900   483900         3685.6652      300.58326      9307.8332      3004.2263      12312.06       58563.513      87120        
    484000   484000         3686.1429      295.58578      9359.2933      2954.2782      12313.571      58783.377      87120        
    484100   484100         3686.6181      300.45549      9373.4482      3002.9493      12376.398      58758.385      87120        
    484200   484200         3687.0867      310.58046      9305.2739      3104.1449      12409.419      58577.983      87120        
    484300   484300         3687.5635      293.94845      9359.0258      2937.9137      12296.939      58751.73       87120        
    484400   484400         3688.0391      297.78599      9340.4661      2976.2685      12316.735      58677.547      87120        
    484500   484500         3688.5148      299.81142      9366.7905      2996.5121      12363.303      58853.514      87120        
    484600   484600         3688.9937      298.79291      9437.1286      2986.3323      12423.461      59031.609      87120        
    484700   484700         3689.4721      309.01767      9412.0154      3088.5253      12500.541      58969.238      87120        
    484800   484800         3689.9504      303.46593      9393.3512      3033.0376      12426.389      58933.849      87120        
    484900   484900         3690.439       296.43535      9378.9515      2962.7694      12341.721      58827.537      87120        
    485000   485000         3690.9194      294.50032      9388.1904      2943.4294      12331.62       58880.894      87120        
    485100   485100         3691.3953      305.04655      9312.7162      3048.8353      12361.551      58527.451      87120        
    485200   485200         3691.8664      300.40379      9377.0781      3002.4325      12379.511      58735.64       87120        
    485300   485300         3692.3393      297.00445      9331.1159      2968.4573      12299.573      58541.608      87120        
    485400   485400         3692.8092      293.58305      9281.1343      2934.2616      12215.396      58408.917      87120        
    485500   485500         3693.288       295.34675      9330.6988      2951.8892      12282.588      58623.636      87120        
    485600   485600         3693.752       301.2823       9333.3253      3011.213       12344.538      58598.765      87120        
    485700   485700         3694.2266      301.12976      9331.6238      3009.6884      12341.312      58688.645      87120        
    485800   485800         3694.7013      300.83443      9323.9435      3006.7366      12330.68       58641.667      87120        
    485900   485900         3695.1775      294.48201      9377.3597      2943.2464      12320.606      58826.031      87120        
    486000   486000         3695.6465      304.62648      9342.1989      3044.6369      12386.836      58764.467      87120        
    486100   486100         3696.1198      308.54167      9346.345       3083.7678      12430.113      58811.965      87120        
    486200   486200         3696.5917      300.75961      9338.989       3005.9888      12344.978      58740.587      87120        
    486300   486300         3697.0632      293.04123      9359.2331      2928.8463      12288.079      58782.373      87120        
    486400   486400         3697.5282      298.4903       9339.5672      2983.3079      12322.875      58715.308      87120        
    486500   486500         3698.001       297.55389      9369.3741      2973.9488      12343.323      58769.625      87120        
    486600   486600         3698.4737      302.82891      9308.5545      3026.6708      12335.225      58511.571      87120        
    486700   486700         3698.9478      297.39801      9345.708       2972.3909      12318.099      58651.527      87120        
    486800   486800         3699.4174      301.74747      9315.0278      3015.8622      12330.89       58544.615      87120        
    486900   486900         3699.8883      299.12549      9317.9058      2989.6564      12307.562      58550.152      87120        
    487000   487000         3700.3763      297.42759      9317.1333      2972.6865      12289.82       58542.353      87120        
    487100   487100         3700.8742      296.88903      9345.9092      2967.3038      12313.213      58606.577      87120        
    487200   487200         3701.3499      302.64584      9351.6274      3024.8411      12376.469      58703.37       87120        
    487300   487300         3701.8228      303.61891      9353.9934      3034.5666      12388.56       58743.932      87120        
    487400   487400         3702.2949      296.07238      9393.02        2959.1416      12352.162      58828.35       87120        
    487500   487500         3702.7667      299.22421      9401.4834      2990.6431      12392.126      58959.94       87120        
    487600   487600         3703.2326      302.62399      9401.5895      3024.6227      12426.212      58916.359      87120        
    487700   487700         3703.72        300.20084      9407.8063      3000.4042      12408.21       58947.965      87120        
    487800   487800         3704.2131      298.02495      9405.828       2978.6569      12384.485      58928.219      87120        
    487900   487900         3704.702       298.08802      9366.9741      2979.2872      12346.261      58737.84       87120        
    488000   488000         3705.1768      298.99747      9323.9194      2988.3769      12312.296      58625.24       87120        
    488100   488100         3705.6517      297.55625      9401.3468      2973.9723      12375.319      58873.083      87120        
    488200   488200         3706.1246      303.8884       9365.3803      3037.26        12402.64       58757.823      87120        
    488300   488300         3706.5954      303.50389      9308.9544      3033.417       12342.371      58560.726      87120        
    488400   488400         3707.068       292.56452      9334.8888      2924.0817      12258.971      58564.185      87120        
    488500   488500         3707.5459      292.92874      9403.5514      2927.722       12331.273      58817.258      87120        
    488600   488600         3708.0341      307.27258      9363.338       3071.0838      12434.422      58711.045      87120        
    488700   488700         3708.5012      301.28951      9357.887       3011.285       12369.172      58764.994      87120        
    488800   488800         3708.9776      296.99554      9341.5808      2968.3683      12309.949      58704.52       87120        
    488900   488900         3709.4558      298.93651      9319.0827      2987.7676      12306.85       58600.699      87120        
    489000   489000         3709.9326      302.54368      9343.3261      3023.82        12367.146      58740.48       87120        
    489100   489100         3710.4076      306.33828      9354.8624      3061.7457      12416.608      58743.865      87120        
    489200   489200         3710.8815      297.9142       9353.8476      2977.55        12331.398      58778.383      87120        
    489300   489300         3711.3415      291.8931       9323.1238      2917.3711      12240.495      58614.933      87120        
    489400   489400         3711.8045      300.17798      9292.57        3000.1757      12292.746      58394.835      87120        
    489500   489500         3712.2749      305.12341      9303.5369      3049.6036      12353.14       58581.876      87120        
    489600   489600         3712.7467      300.82638      9339.9198      3006.6562      12346.576      58582.531      87120        
    489700   489700         3713.2111      300.4463       9323.2755      3002.8575      12326.133      58513.111      87120        
    489800   489800         3713.6817      302.01636      9299.9181      3018.5497      12318.468      58524.288      87120        
    489900   489900         3714.1447      302.64012      9288.6196      3024.7839      12313.404      58404.406      87120        
    490000   490000         3714.6085      293.70868      9345.5988      2935.5172      12281.116      58696.439      87120        
    490100   490100         3715.0761      300.49219      9300.8608      3003.3161      12304.177      58506.853      87120        
    490200   490200         3715.5338      304.22881      9359.4454      3040.6624      12400.108      58737.638      87120        
    490300   490300         3716.0022      305.00084      9368.4548      3048.3786      12416.833      58843.785      87120        
    490400   490400         3716.4672      302.23844      9364.3454      3020.7693      12385.115      58824.219      87120        
    490500   490500         3716.9371      304.13748      9307.5966      3039.7495      12347.346      58654.11       87120        
    490600   490600         3717.4018      294.23379      9381.7044      2940.7655      12322.47       58897.988      87120        
    490700   490700         3717.8768      297.27574      9391.0143      2971.1688      12362.183      58958.9        87120        
    490800   490800         3718.349       308.27537      9367.4155      3081.1063      12448.522      58839.245      87120        
    490900   490900         3718.8192      302.03809      9392.377       3018.7668      12411.144      58779.288      87120        
    491000   491000         3719.2941      299.82374      9343.0715      2996.6352      12339.707      58717.042      87120        
    491100   491100         3719.7566      297.35704      9309.0064      2971.9814      12280.988      58551.039      87120        
    491200   491200         3720.225       297.97033      9296.3602      2978.111       12274.471      58451.221      87120        
    491300   491300         3720.6936      301.33529      9325.0868      3011.7425      12336.829      58623.64       87120        
    491400   491400         3721.1613      311.7333       9331.3407      3115.6672      12447.008      58633.465      87120        
    491500   491500         3721.6394      306.31224      9327.7891      3061.4855      12389.275      58675.857      87120        
    491600   491600         3722.1158      303.17193      9318.6057      3030.0992      12348.705      58618.175      87120        
    491700   491700         3722.6037      297.0651       9363.3544      2969.0635      12332.418      58738.605      87120        
    491800   491800         3723.083       298.88443      9371.7971      2987.2471      12359.044      58859.398      87120        
    491900   491900         3723.5628      303.16743      9369.8524      3030.0542      12399.907      58780.146      87120        
    492000   492000         3724.0521      306.98577      9345.2403      3068.2172      12413.457      58816.913      87120        
    492100   492100         3724.5328      294.86043      9375.2419      2947.0286      12322.27       58904.269      87120        
    492200   492200         3725.0056      293.41953      9329.3368      2932.6273      12261.964      58627.786      87120        
    492300   492300         3725.4771      298.56631      9347.1297      2984.0676      12331.197      58696.527      87120        
    492400   492400         3725.947       303.06496      9312.073       3029.03        12341.103      58514.782      87120        
    492500   492500         3726.4241      302.3622       9298.5119      3022.0062      12320.518      58504.444      87120        
    492600   492600         3726.895       297.35693      9278.0999      2971.9802      12250.08       58420.628      87120        
    492700   492700         3727.3658      295.16463      9270.292       2950.069       12220.361      58354.274      87120        
    492800   492800         3727.8344      309.98244      9246.1119      3098.1679      12344.28       58382.858      87120        
    492900   492900         3728.3155      306.90714      9282.592       3067.4313      12350.023      58496.342      87120        
    493000   493000         3728.7879      295.78222      9342.7959      2956.2416      12299.038      58670.377      87120        
    493100   493100         3729.2584      300.182        9339.8399      3000.2159      12340.056      58687.631      87120        
    493200   493200         3729.7366      304.93358      9328.4709      3047.7063      12376.177      58641.583      87120        
    493300   493300         3730.2085      294.71093      9403.1072      2945.5344      12348.642      58915.588      87120        
    493400   493400         3730.6879      296.23725      9355.8765      2960.7894      12316.666      58766.276      87120        
    493500   493500         3731.1581      295.3916       9404.3596      2952.3374      12356.697      58954.517      87120        
    493600   493600         3731.6397      300.3506       9426.3832      3001.9009      12428.284      59012.117      87120        
    493700   493700         3732.1175      297.5623       9413.6986      2974.0328      12387.731      58921.424      87120        
    493800   493800         3732.588       299.83652      9359.7724      2996.7629      12356.535      58766.01       87120        
    493900   493900         3733.0604      300.73503      9288.9296      3005.7432      12294.673      58385.614      87120        
    494000   494000         3733.528       291.96748      9289.5379      2918.1146      12207.653      58385.901      87120        
    494100   494100         3733.9984      301.31882      9272.489       3011.578       12284.067      58363.265      87120        
    494200   494200         3734.4618      301.52833      9315.2732      3013.6719      12328.945      58506.335      87120        
    494300   494300         3734.9359      301.08657      9321.6293      3009.2567      12330.886      58622.45       87120        
    494400   494400         3735.4008      296.34776      9363.4604      2961.894       12325.354      58746.972      87120        
    494500   494500         3735.8753      302.96459      9362.7905      3028.0268      12390.817      58725.989      87120        
    494600   494600         3736.3484      309.96448      9400.1442      3097.9884      12498.133      58987.328      87120        
    494700   494700         3736.8325      301.64819      9405.601       3014.8699      12420.471      58958.19       87120        
    494800   494800         3737.3226      295.63255      9428.9877      2954.7457      12383.733      59058.734      87120        
    494900   494900         3737.8068      298.79093      9386.8448      2986.3126      12373.157      58968.497      87120        
    495000   495000         3738.2883      299.30413      9400.8051      2991.4419      12392.247      58956.088      87120        
    495100   495100         3738.7633      308.89471      9379.2941      3087.2964      12466.591      58894.586      87120        
    495200   495200         3739.2314      303.53638      9407.4922      3033.7417      12441.234      59008.36       87120        
    495300   495300         3739.7053      295.13955      9360.8571      2949.8183      12310.675      58802.57       87120        
    495400   495400         3740.1724      295.14858      9345.3419      2949.9086      12295.25       58665.085      87120        
    495500   495500         3740.6396      302.28305      9334.7047      3021.2152      12355.92       58645.74       87120        
    495600   495600         3741.1205      299.77865      9362.7152      2996.1845      12358.9        58759.359      87120        
    495700   495700         3741.6016      300.85204      9319.9613      3006.9127      12326.874      58585.332      87120        
    495800   495800         3742.074       299.75735      9316.9338      2995.9716      12312.905      58623.577      87120        
    495900   495900         3742.5421      294.52959      9342.5898      2943.722       12286.312      58683.19       87120        
    496000   496000         3743.0198      291.81972      9360.9092      2916.6378      12277.547      58764.87       87120        
    496100   496100         3743.4891      301.24475      9365.5356      3010.8377      12376.373      58820.276      87120        
    496200   496200         3743.9648      304.53844      9354.1531      3043.757       12397.91       58728.237      87120        
    496300   496300         3744.4316      293.63901      9422.362       2934.821       12357.183      58993.448      87120        
    496400   496400         3744.9096      298.78652      9359.3355      2986.2685      12345.604      58796.829      87120        
    496500   496500         3745.3799      294.87432      9355.2008      2947.1674      12302.368      58742.327      87120        
    496600   496600         3745.858       297.14413      9324.4515      2969.8534      12294.305      58667.365      87120        
    496700   496700         3746.3246      301.60492      9353.6098      3014.4375      12368.047      58768.626      87120        
    496800   496800         3746.802       308.66991      9305.9235      3085.0496      12390.973      58613.161      87120        
    496900   496900         3747.2785      295.54406      9326.4216      2953.8612      12280.283      58599.972      87120        
    497000   497000         3747.7522      291.81999      9374.2151      2916.6404      12290.856      58771.304      87120        
    497100   497100         3748.2228      301.14296      9339.3492      3009.8203      12349.169      58643.231      87120        
    497200   497200         3748.6929      303.74321      9320.0993      3035.809       12355.908      58564.982      87120        
    497300   497300         3749.1633      294.28986      9357.4315      2941.326       12298.758      58764.494      87120        
    497400   497400         3749.6294      289.05947      9374.715       2889.05        12263.765      58762.979      87120        
    497500   497500         3750.1028      306.65919      9337.3184      3064.9532      12402.272      58671.072      87120        
    497600   497600         3750.5675      302.14812      9377.8988      3019.8666      12397.765      58834.939      87120        
    497700   497700         3751.0423      300.83931      9344.8213      3006.7854      12351.607      58722.315      87120        
    497800   497800         3751.5058      291.93675      9420.1503      2917.8075      12337.958      58992.743      87120        
    497900   497900         3751.9791      308.76082      9342.3074      3085.9582      12428.266      58699.961      87120        
    498000   498000         3752.444       304.86922      9367.9547      3047.063       12415.018      58719.165      87120        
    498100   498100         3752.916       297.8111       9379.4103      2976.5195      12355.93       58828.828      87120        
    498200   498200         3753.3811      301.17714      9314.7599      3010.162       12324.922      58597.802      87120        
    498300   498300         3753.8492      299.99161      9313.1395      2998.313       12311.453      58604.388      87120        
    498400   498400         3754.3209      306.02548      9283.5381      3058.6195      12342.158      58496.717      87120        
    498500   498500         3754.7839      299.78732      9290.3347      2996.2712      12286.606      58417.949      87120        
    498600   498600         3755.2542      296.75765      9270.3818      2965.9906      12236.372      58399.752      87120        
    498700   498700         3755.7197      299.318        9317.3626      2991.5804      12308.943      58577.479      87120        
    498800   498800         3756.1836      306.11388      9335.5082      3059.503       12395.011      58638.045      87120        
    498900   498900         3756.6488      306.1201       9312.6675      3059.5652      12372.233      58614.604      87120        
    499000   499000         3757.1208      297.04956      9339.5547      2968.9082      12308.463      58642.805      87120        
    499100   499100         3757.5828      299.34699      9359.2866      2991.8702      12351.157      58768.364      87120        
    499200   499200         3758.0465      303.61626      9385.4023      3034.5402      12419.942      58917.303      87120        
    499300   499300         3758.5095      306.16414      9336.1023      3060.0053      12396.108      58718.01       87120        
    499400   499400         3758.9759      294.27074      9376.8919      2941.1348      12318.027      58865.272      87120        
    499500   499500         3759.4416      298.33782      9346.6044      2981.7839      12328.388      58747.598      87120        
    499600   499600         3759.906       303.48811      9321.1187      3033.2593      12354.378      58648.667      87120        
    499700   499700         3760.3683      292.81908      9401.0369      2926.626       12327.663      58918.644      87120        
    499800   499800         3760.8318      299.35236      9314.0491      2991.9239      12305.973      58599.567      87120        
    499900   499900         3761.2882      293.36445      9342.9271      2932.0768      12275.004      58662.037      87120        
    500000   500000         3761.7551      299.30417      9374.6089      2991.4422      12366.051      58802.425      87120        
Loop time of 3761.76 on 8 procs for 500000 steps with 4349 atoms

Performance: 11.484 ns/day, 2.090 hours/ns, 132.917 timesteps/s, 578.054 katom-step/s
98.9% CPU use with 8 MPI tasks x no OpenMP threads

MPI task timing breakdown:
Section |  min time  |  avg time  |  max time  |%varavg| %total
---------------------------------------------------------------
Pair    | 49.528     | 1152.2     | 3129.6     |3456.9 | 30.63
Bond    | 5.562      | 17.379     | 24.01      | 169.6 |  0.46
Neigh   | 384.9      | 386.74     | 388.43     |   5.7 | 10.28
Comm    | 107.09     | 2065.1     | 3165.4     |2555.4 | 54.90
Output  | 1.4573     | 1.5577     | 1.7038     |   5.9 |  0.04
Modify  | 104.4      | 122.33     | 161.71     | 158.8 |  3.25
Other   |            | 16.48      |            |       |  0.44

Nlocal:        543.625 ave         856 max           0 min
Histogram: 2 0 0 0 0 0 2 0 0 4
Nghost:           4830 ave        8378 max        2522 min
Histogram: 2 2 0 0 2 0 0 0 0 2
Neighs:         155324 ave      262218 max           0 min
Histogram: 2 0 0 0 2 0 0 0 0 4

Total # of neighbors = 1242589
Ave neighs/atom = 285.71833
Ave special neighs/atom = 6.337089
Neighbor list builds = 35524
Dangerous builds = 0
unfix                  mynvt


write_data             nvt_500ps.data
System init for write_data ...
Generated 21 of 21 mixed pair_coeff terms from arithmetic mixing rule
WARNING: Dihedrals are defined but no dihedral style is set (../force.cpp:207)
WARNING: Likewise 1-4 special neighbor interactions != 1.0 (../force.cpp:209)
WARNING: Impropers are defined but no improper style is set (../force.cpp:212)












Total wall time: 1:02:41
