LAMMPS (29 Aug 2024)
units                  real
atom_style	       full
bond_style	       harmonic
angle_style	       harmonic
boundary	       p p p

neighbor 2.0 bin
neigh_modify every 1 delay 0 check yes

# ============= read data and parameters files

pair_style            lj/cut 10.0
pair_modify           shift yes mix arithmetic

read_data             equilb_100ps.data
Reading data file ...
  orthogonal box = (-0.1495 -0.193001 -38.75) to (32.8505 32.806999 41.25)
  1 by 2 by 4 MPI processor grid
  reading atoms ...
  4353 atoms
  reading velocities ...
  4353 velocities
  scanning bonds ...
  2 = max bonds/atom
  scanning angles ...
  3 = max angles/atom
  scanning dihedrals ...
  8 = max dihedrals/atom
  scanning impropers ...
  2 = max impropers/atom
  orthogonal box = (-0.1495 -0.193001 -38.75) to (32.8505 32.806999 41.25)
  1 by 2 by 4 MPI processor grid
  reading bonds ...
  3924 bonds
  reading angles ...
  4653 angles
  reading dihedrals ...
  6987 dihedrals
  reading impropers ...
  1158 impropers
Finding 1-2 1-3 1-4 neighbors ...
  special bond factors lj:    0        0        0       
  special bond factors coul:  0        0        0       
     3 = max # of 1-2 neighbors
     6 = max # of 1-3 neighbors
    18 = max # of 1-4 neighbors
    18 = max # of special neighbors
  special bonds CPU = 0.001 seconds
  read_data CPU = 0.084 seconds

pair_coeff  1  1      0.0859  3.3997
pair_coeff  2  2      0.0559  2.757
pair_coeff  3  3      0.0859  3.3997
pair_coeff  4  4      0.0859  3.3997
pair_coeff  5  5      0.0000  1.0000
pair_coeff  6  6      0.1598  3.0330
pair_coeff  7  7      0.1521  3.1507

bond_coeff     1      938.0    1.42
bond_coeff     2      190.96   1.149
bond_coeff     3      938.0    1.42
bond_coeff     4      938.0    1.42
bond_coeff     5      450.0    0.9572

angle_coeff    1      126      120.0
angle_coeff    2      126      120.0
angle_coeff    3      126      120.0
angle_coeff    4      55.0     104.52
angle_coeff    5      295.4    180.0


group  water     type 5  7
2985 atoms in group water
group  memb      type 1
442 atoms in group memb
group  CG1       type 3
448 atoms in group CG1
group  CG2       type 4
448 atoms in group CG2
group  CG3       type 3 4
896 atoms in group CG3

dump dump_1 all custom 500 dump.lammpstrj id type x y z

timestep 1.0
thermo_style custom step time cpu temp pe ke etotal press vol
thermo 100

fix                    myshk1  water shake 1.0e-5 200 0 b 5 a 4
Finding SHAKE clusters ...
       0 = # of size 2 clusters
       0 = # of size 3 clusters
       0 = # of size 4 clusters
     995 = # of frozen angles
  find clusters CPU = 0.001 seconds

fix                    freeze memb setforce 0.0 0.0 0.0

fix                    pistonkeep CG3  setforce  0.0   0.0    NULL
fix                    myforce1   CG1  aveforce  NULL  NULL  -1.439     #P=250 bars
fix                    freeze1    CG2  setforce 0.0 0.0 0.0

fix                    mynvt  all nvt temp 300 300 100.0
run                    500000

CITE-CITE-CITE-CITE-CITE-CITE-CITE-CITE-CITE-CITE-CITE-CITE-CITE

Your simulation uses code contributions which should be cited:

- Type Label Framework: https://doi.org/10.1021/acs.jpcb.3c08419

@Article{Gissinger24,
 author = {Jacob R. Gissinger, Ilia Nikiforov, Yaser Afshar, Brendon Waters, Moon-ki Choi, Daniel S. Karls, Alexander Stukowski, Wonpil Im, Hendrik Heinz, Axel Kohlmeyer, and Ellad B. Tadmor},
 title = {Type Label Framework for Bonded Force Fields in LAMMPS},
 journal = {J. Phys. Chem. B},
 year =    2024,
 volume =  128,
 number =  13,
 pages =   {3282â€“-3297}
}

CITE-CITE-CITE-CITE-CITE-CITE-CITE-CITE-CITE-CITE-CITE-CITE-CITE

Generated 21 of 21 mixed pair_coeff terms from arithmetic mixing rule
WARNING: Dihedrals are defined but no dihedral style is set (../force.cpp:207)
WARNING: Likewise 1-4 special neighbor interactions != 1.0 (../force.cpp:209)
WARNING: Impropers are defined but no improper style is set (../force.cpp:212)
Neighbor list info ...
  update: every = 1 steps, delay = 0 steps, check = yes
  max neighbors/atom: 2000, page size: 100000
  master list distance cutoff = 12
  ghost atom cutoff = 12
  binsize = 6, bins = 6 6 14
  1 neighbor lists, perpetual/occasional/extra = 1 0 0
  (1) pair lj/cut, perpetual
      attributes: half, newton on
      pair build: half/bin/newton
      stencil: half/bin/3d
      bin: standard
Per MPI rank memory allocation (min/avg/max) = 12.35 | 12.95 | 13.88 Mbytes
   Step          Time           CPU            Temp          PotEng         KinEng         TotEng         Press          Volume    
         0   0              0              301.90366      9412.0759      3021.0229      12433.099      58644.007      87120        
       100   100            0.59258593     305.51085      9453.8366      3057.1185      12510.955      58917.322      87120        
       200   200            1.2089087      311.02331      9486.056       3112.2794      12598.335      59153.599      87120        
       300   300            1.8330716      323.81796      9520.1738      3240.3101      12760.484      59479.472      87120        
       400   400            2.4795199      331.05853      9608.3299      3312.7635      12921.093      60093.781      87120        
       500   500            3.1357367      333.54802      9702.1727      3337.6747      13039.847      60717.086      87120        
       600   600            3.8422094      338.89228      9740.9209      3391.1525      13132.073      61117.442      87120        
       700   700            4.582664       335.03213      9864.7878      3352.5255      13217.313      61816.651      87120        
       800   800            5.4031769      333.59702      9927.5937      3338.165       13265.759      62298.632      87120        
       900   900            6.2426509      333.88066      9963.5774      3341.0033      13304.581      62739.929      87120        
      1000   1000           7.1792652      331.08638      10022.376      3313.0421      13335.418      63197.209      87120        
      1100   1100           8.1331366      313.59309      10285.006      3137.9942      13423          64376.989      87120        
      1200   1200           9.0822242      311.91568      10441.512      3121.209       13562.721      65295.923      87120        
      1300   1300           10.129732      297.26881      10767.331      2974.6439      13741.974      66656.519      87120        
      1400   1400           11.245438      294.85892      11107.108      2950.5291      14057.637      68175.184      87120        
      1500   1500           12.375364      296.54633      11469.245      2967.4144      14436.66       69783.336      87120        
      1600   1600           13.535449      297.63335      11848.224      2978.2917      14826.516      71328.13       87120        
      1700   1700           14.716359      303.92438      12070.211      3041.2434      15111.454      72147.116      87120        
      1800   1800           15.864725      313.68682      12041.771      3138.932       15180.703      72060.241      87120        
      1900   1900           17.042484      309.04632      11889.655      3092.4965      14982.151      71484.51       87120        
      2000   2000           18.222131      300.8277       11620.715      3010.2562      14630.971      70266.176      87120        
      2100   2100           19.348962      297.56427      11231.716      2977.6004      14209.316      68794.744      87120        
      2200   2200           20.631337      290.32273      10886.182      2905.1374      13791.319      67264.348      87120        
      2300   2300           21.907891      292.40444      10558.497      2925.9682      13484.465      65772.582      87120        
      2400   2400           23.120699      292.86316      10380.663      2930.5585      13311.222      64935.518      87120        
      2500   2500           24.311493      294.30102      10239.636      2944.9465      13184.582      64137.889      87120        
      2600   2600           25.366689      295.71048      10080.931      2959.0504      13039.981      63305.164      87120        
      2700   2700           26.356639      294.71926      9970.5548      2949.1317      12919.687      62733.982      87120        
      2800   2800           27.357475      296.6372       9891.626       2968.3236      12859.95       62233.902      87120        
      2900   2900           28.297666      301.27459      9828.9724      3014.7281      12843.7        61933.668      87120        
      3000   3000           29.234112      298.86957      9855.7379      2990.6621      12846.4        61965.06       87120        
      3100   3100           30.129004      299.55814      9871.3446      2997.5523      12868.897      61915.468      87120        
      3200   3200           31.038447      303.20463      9861.3125      3034.0411      12895.354      61840.791      87120        
      3300   3300           31.969665      300.09914      9917.075       3002.9659      12920.041      62102.827      87120        
      3400   3400           32.870643      304.09739      9923.1742      3042.9747      12966.149      62095.477      87120        
      3500   3500           33.765692      305.13592      9968.7239      3053.3667      13022.091      62406.304      87120        
      3600   3600           34.716639      302.0563       10026.608      3022.5503      13049.158      62700.588      87120        
      3700   3700           35.673262      299.7455       10117.726      2999.4272      13117.153      63130.715      87120        
      3800   3800           36.667203      304.80172      10163.218      3050.0226      13213.241      63478.859      87120        
      3900   3900           37.631339      301.30438      10302.173      3015.0261      13317.199      64094.413      87120        
      4000   4000           38.626097      308.26295      10356.488      3084.6577      13441.145      64499.685      87120        
      4100   4100           39.586689      304.89246      10514.678      3050.9306      13565.609      65239.761      87120        
      4200   4200           40.587795      303.1041       10661.354      3033.0352      13694.389      65887.131      87120        
      4300   4300           41.728341      301.68044      10789.458      3018.7892      13808.248      66522.443      87120        
      4400   4400           43.04007       295.85147      10968.558      2960.4612      13929.02       67273.949      87120        
      4500   4500           44.34498       299.5256       11101.477      2997.2267      14098.704      67886.903      87120        
      4600   4600           45.519489      305.45947      11172.291      3056.6044      14228.895      68216.182      87120        
      4700   4700           46.693338      299.24869      11178.743      2994.4557      14173.199      68269          87120        
      4800   4800           47.848622      301.21092      11097.861      3014.091       14111.952      67967.89       87120        
      4900   4900           49.015066      300.88461      11027.87       3010.8258      14038.695      67693.373      87120        
      5000   5000           50.12952       301.45857      10933.996      3016.5691      13950.565      67297.96       87120        
      5100   5100           51.191828      297.75988      10864.602      2979.5579      13844.16       66925.741      87120        
      5200   5200           52.270841      302.12584      10710.221      3023.2461      13733.467      66284.492      87120        
      5300   5300           53.304549      296.76537      10679.598      2969.6062      13649.204      66053.9        87120        
      5400   5400           54.343847      307.83981      10496.549      3080.4235      13576.972      65302.025      87120        
      5500   5500           55.354211      300.10245      10414.715      3002.999       13417.714      64795.911      87120        
      5600   5600           56.362155      294.68471      10372.383      2948.7859      13321.169      64582.833      87120        
      5700   5700           57.392928      299.79288      10301.19       2999.9013      13301.092      64184.941      87120        
      5800   5800           58.413259      295.04689      10292.273      2952.4102      13244.683      64093.227      87120        
      5900   5900           59.407956      299.55285      10235.821      2997.4993      13233.32       63806.322      87120        
      6000   6000           60.378488      296.98415      10255.031      2971.7954      13226.826      63815.477      87120        
      6100   6100           61.362869      300.16377      10256.737      3003.6126      13260.349      63880.191      87120        
      6200   6200           62.508223      300.22219      10256.334      3004.1971      13260.531      63818.175      87120        
      6300   6300           63.644101      300.87772      10217.971      3010.7567      13228.728      63691.174      87120        
      6400   6400           64.806834      296.77425      10245.794      2969.6951      13215.489      63766.029      87120        
      6500   6500           65.928699      301.31294      10233.697      3015.1119      13248.809      63779.463      87120        
      6600   6600           66.963659      303.23653      10282.756      3034.3604      13317.116      64062.405      87120        
      6700   6700           67.96954       306.59181      10327.676      3067.9353      13395.611      64275.267      87120        
      6800   6800           68.956862      301.62889      10416.647      3018.2734      13434.92       64636.748      87120        
      6900   6900           69.950234      305.47293      10427.436      3056.7391      13484.175      64792.459      87120        
      7000   7000           70.961908      297.37672      10573.095      2975.7237      13548.819      65357.176      87120        
      7100   7100           71.961543      301.82719      10600.516      3020.2577      13620.773      65551.244      87120        
      7200   7200           72.96667       303.77794      10613.645      3039.7781      13653.423      65721.241      87120        
      7300   7300           74.002383      297.28643      10706.472      2974.8203      13681.293      65999.849      87120        
      7400   7400           75.023477      293.30186      10737.42       2934.9484      13672.368      66209.145      87120        
      7500   7500           76.080024      294.9148       10737.548      2951.0883      13688.636      66314.363      87120        
      7600   7600           77.131582      302.2332       10768.607      3024.3205      13792.927      66450.496      87120        
      7700   7700           78.214197      301.77751      10813.517      3019.7606      13833.278      66584.042      87120        
      7800   7800           79.276367      301.16164      10771.806      3013.5978      13785.404      66433.899      87120        
      7900   7900           80.309937      290.07744      10730.577      2902.6829      13633.26       66228.981      87120        
      8000   8000           81.360344      295.05455      10680.148      2952.4867      13632.635      66039.375      87120        
      8100   8100           82.37084       297.43168      10671.188      2976.2737      13647.462      65913.926      87120        
      8200   8200           83.397692      306.20202      10551.259      3064.0348      13615.294      65501.839      87120        
      8300   8300           84.409814      297.05419      10578.662      2972.4963      13551.158      65568.452      87120        
      8400   8400           85.4346        293.07556      10565.525      2932.6839      13498.209      65438.914      87120        
      8500   8500           86.450554      305.58003      10500.028      3057.8108      13557.839      65228.301      87120        
      8600   8600           87.459489      306.66513      10449.123      3068.6689      13517.792      64966.585      87120        
      8700   8700           88.462677      296.34248      10469.512      2965.3745      13434.887      64951.547      87120        
      8800   8800           89.471326      297.39131      10422.946      2975.8697      13398.815      64828.95       87120        
      8900   8900           90.454881      302.38844      10404.281      3025.8739      13430.155      64655.964      87120        
      9000   9000           91.43953       302.78661      10413.583      3029.8582      13443.441      64697.795      87120        
      9100   9100           92.396345      301.72271      10394.674      3019.2123      13413.886      64635.372      87120        
      9200   9200           93.378807      293.34206      10355.528      2935.3506      13290.878      64403.922      87120        
      9300   9300           94.358543      291.40233      10398.415      2915.9406      13314.355      64620.612      87120        
      9400   9400           95.33744       297.52059      10407.788      2977.1634      13384.951      64629.274      87120        
      9500   9500           96.31796       302.13032      10416.094      3023.291       13439.385      64694.28       87120        
      9600   9600           97.322694      302.76124      10414.202      3029.6044      13443.806      64721.617      87120        
      9700   9700           98.336314      298.74712      10419.765      2989.4367      13409.202      64754.784      87120        
      9800   9800           99.330713      293.56867      10469.248      2937.6181      13406.867      64918.547      87120        
      9900   9900           100.33256      302.02143      10506.306      3022.2014      13528.507      65192.206      87120        
     10000   10000          101.32887      310.40656      10531.414      3106.1079      13637.522      65326.839      87120        
     10100   10100          102.31431      298.69672      10603.369      2988.9324      13592.301      65531.948      87120        
     10200   10200          103.32318      302.15256      10561.755      3023.5135      13585.269      65494.33       87120        
     10300   10300          104.34278      299.96979      10617.241      3001.6715      13618.912      65666.843      87120        
     10400   10400          105.37044      306.25316      10697.98       3064.5465      13762.526      66041.573      87120        
     10500   10500          106.39467      308.44305      10729.409      3086.4598      13815.869      66153.578      87120        
     10600   10600          107.43414      308.61094      10656.452      3088.1399      13744.592      65903.029      87120        
     10700   10700          108.46542      306.9191       10579.818      3071.2103      13651.028      65632.015      87120        
     10800   10800          109.48583      294.29711      10605.247      2944.9074      13550.154      65651.74       87120        
     10900   10900          110.50257      294.15381      10584.945      2943.4734      13528.419      65488.606      87120        
     11000   11000          111.51327      303.77967      10525.266      3039.7953      13565.061      65268.277      87120        
     11100   11100          112.50117      301.2035       10514.739      3014.0167      13528.756      65218.895      87120        
     11200   11200          113.50091      300.691        10478.578      3008.8884      13487.466      65024.991      87120        
     11300   11300          114.50247      297.0026       10496.446      2971.9801      13468.426      65148.456      87120        
     11400   11400          115.48148      292.30513      10526.083      2924.9745      13451.057      65165.118      87120        
     11500   11500          116.47718      301.72307      10441.641      3019.2158      13460.857      64837.383      87120        
     11600   11600          117.45014      298.86318      10459.404      2990.5981      13450.002      64901.635      87120        
     11700   11700          118.44218      308.18013      10442.771      3083.8289      13526.6        64887.34       87120        
     11800   11800          119.41485      308.65093      10404.941      3088.54        13493.481      64670.359      87120        
     11900   11900          120.40623      295.87508      10420.216      2960.6975      13380.914      64737.637      87120        
     12000   12000          121.39619      300.77929      10418.453      3009.7718      13428.225      64744.273      87120        
     12100   12100          122.35897      298.31104      10500.759      2985.073       13485.832      65044.127      87120        
     12200   12200          123.34752      301.34085      10513.317      3015.3911      13528.708      65171.857      87120        
     12300   12300          124.32078      302.41498      10471.856      3026.1395      13497.995      64964.49       87120        
     12400   12400          125.30986      293.88853      10458.267      2940.8189      13399.086      64882.832      87120        
     12500   12500          126.30813      298.45206      10466.309      2986.4842      13452.793      65009.888      87120        
     12600   12600          127.30454      306.46941      10478.691      3066.7105      13545.402      65016.613      87120        
     12700   12700          128.29642      305.31273      10543.266      3055.1361      13598.402      65305.301      87120        
     12800   12800          129.27531      299.94575      10573.026      3001.431       13574.457      65394.255      87120        
     12900   12900          130.27525      296.36797      10559.7        2965.6296      13525.33       65314.129      87120        
     13000   13000          131.28045      300.01855      10545.711      3002.1595      13547.871      65376.459      87120        
     13100   13100          132.2691       301.21513      10614.718      3014.1331      13628.851      65604.19       87120        
     13200   13200          133.26883      304.90431      10604.083      3051.0491      13655.132      65530.046      87120        
     13300   13300          134.26794      303.6204       10535.018      3038.2016      13573.219      65369.158      87120        
     13400   13400          135.26698      300.91821      10524.311      3011.162       13535.473      65307.92       87120        
     13500   13500          136.28116      297.26365      10580.381      2974.5923      13554.973      65456.867      87120        
     13600   13600          137.2782       297.27956      10618.507      2974.7515      13593.258      65640.15       87120        
     13700   13700          138.28296      297.62235      10605.714      2978.1816      13583.896      65574.478      87120        
     13800   13800          139.29349      297.88265      10590.663      2980.7863      13571.449      65521.832      87120        
     13900   13900          140.30912      300.05462      10569.355      3002.5203      13571.875      65463.871      87120        
     14000   14000          141.3214       299.67439      10575.536      2998.7155      13574.251      65465.288      87120        
     14100   14100          142.31255      299.25999      10588.148      2994.5688      13582.717      65471.299      87120        
     14200   14200          143.31636      307.76053      10486.339      3079.6302      13565.969      65206.023      87120        
     14300   14300          144.31992      291.45386      10546.851      2916.4562      13463.307      65317.905      87120        
     14400   14400          145.31908      294.64065      10524.198      2948.3451      13472.543      65216.809      87120        
     14500   14500          146.31961      306.12121      10505.342      3063.2262      13568.568      65207.912      87120        
     14600   14600          147.31234      303.61818      10527.723      3038.1794      13565.902      65238.857      87120        
     14700   14700          148.32001      299.91116      10496.913      3001.0849      13497.998      65119.722      87120        
     14800   14800          149.29784      296.17533      10486.283      2963.7019      13449.985      65051.58       87120        
     14900   14900          150.29638      300.17713      10466          3003.7462      13469.746      65048.795      87120        
     15000   15000          151.28989      303.14689      10466.646      3033.4634      13500.11       64993.785      87120        
     15100   15100          152.27585      298.65817      10479.604      2988.5467      13468.151      65031.794      87120        
     15200   15200          153.26497      292.84615      10434.177      2930.3882      13364.565      64900.958      87120        
     15300   15300          154.23186      297.32845      10454.515      2975.2407      13429.756      64971.774      87120        
     15400   15400          155.21393      296.31872      10560.094      2965.1368      13525.231      65357.674      87120        
     15500   15500          156.20124      306.56332      10479.234      3067.6502      13546.884      65078.608      87120        
     15600   15600          157.19626      298.55661      10484.579      2987.5304      13472.11       65058.394      87120        
     15700   15700          158.18968      302.28372      10435.413      3024.826       13460.239      64900.611      87120        
     15800   15800          159.17971      301.97858      10504.558      3021.7726      13526.33       65165.067      87120        
     15900   15900          160.18204      308.3648       10558.041      3085.6769      13643.718      65336.746      87120        
     16000   16000          161.18056      309.01223      10510.886      3092.1554      13603.041      65205.388      87120        
     16100   16100          162.16296      304.21241      10503.792      3044.1256      13547.918      65207.481      87120        
     16200   16200          163.14883      295.14101      10537.787      2953.3519      13491.139      65230.803      87120        
     16300   16300          164.13807      300.70992      10477.117      3009.0777      13486.195      65101.684      87120        
     16400   16400          165.12689      299.96703      10500.255      3001.6439      13501.899      65185.578      87120        
     16500   16500          166.11357      296.02096      10547.022      2962.1572      13509.18       65292.331      87120        
     16600   16600          167.12822      301.33637      10521.73       3015.3463      13537.077      65264.921      87120        
     16700   16700          168.14255      302.84745      10529.661      3030.467       13560.128      65288.547      87120        
     16800   16800          169.14683      300.26154      10512.231      3004.5909      13516.822      65201.701      87120        
     16900   16900          170.14868      295.98861      10512.755      2961.8335      13474.588      65219.584      87120        
     17000   17000          171.15104      298.8727       10543.307      2990.6934      13534          65268.402      87120        
     17100   17100          172.16034      305.5074       10548.809      3057.0841      13605.893      65344.084      87120        
     17200   17200          173.15659      303.02609      10557.572      3032.2546      13589.827      65448.873      87120        
     17300   17300          174.13804      301.96157      10534.152      3021.6024      13555.754      65291.161      87120        
     17400   17400          175.13064      301.28314      10476.779      3014.8137      13491.593      65102.292      87120        
     17500   17500          176.13057      296.33235      10459.073      2965.2731      13424.347      65014.305      87120        
     17600   17600          177.13511      296.34601      10519.662      2965.4099      13485.072      65250.075      87120        
     17700   17700          178.15214      306.35902      10535.423      3065.6058      13601.029      65326.966      87120        
     17800   17800          179.15369      301.1534       10567.977      3013.5154      13581.492      65394.813      87120        
     17900   17900          180.16278      300.89564      10515.291      3010.9361      13526.227      65221.126      87120        
     18000   18000          181.16348      296.80112      10514.898      2969.9639      13484.862      65228.385      87120        
     18100   18100          182.15489      302.29881      10489.7        3024.9771      13514.677      65113.712      87120        
     18200   18200          183.15417      301.49973      10598.662      3016.981       13615.643      65527.8        87120        
     18300   18300          184.15138      311.38993      10526.824      3115.9481      13642.772      65314.16       87120        
     18400   18400          185.15489      298.9175       10538.717      2991.1416      13529.859      65256.48       87120        
     18500   18500          186.15884      300.31517      10510.342      3005.1276      13515.47       65172.033      87120        
     18600   18600          187.16038      300.49543      10520.959      3006.9313      13527.891      65226.109      87120        
     18700   18700          188.16356      304.1461       10488.523      3043.462       13531.985      65114.248      87120        
     18800   18800          189.16407      295.24827      10485.049      2954.4253      13439.474      65092.911      87120        
     18900   18900          190.16473      291.53016      10495.577      2917.2196      13412.796      65150.572      87120        
     19000   19000          191.19236      300.12874      10498.587      3003.262       13501.849      65161.836      87120        
     19100   19100          192.18071      306.95547      10487.258      3071.5743      13558.833      65189.984      87120        
     19200   19200          193.19912      301.82063      10500.05       3020.1921      13520.242      65182.276      87120        
     19300   19300          194.19935      301.05226      10464.67       3012.5033      13477.173      65054.504      87120        
     19400   19400          195.21027      298.62549      10457.916      2988.2196      13446.136      65024.025      87120        
     19500   19500          196.21246      306.01796      10513.322      3062.193       13575.515      65199.911      87120        
     19600   19600          197.24836      304.36162      10547.017      3045.6187      13592.636      65366.517      87120        
     19700   19700          198.25944      301.50678      10488.092      3017.0515      13505.143      65087.979      87120        
     19800   19800          199.29175      298.96733      10490.646      2991.6403      13482.286      65177.707      87120        
     19900   19900          200.30211      295.69325      10526.465      2958.878       13485.343      65231.555      87120        
     20000   20000          201.31114      300.92964      10536.929      3011.2763      13548.205      65288.335      87120        
     20100   20100          202.30855      308.31991      10513.838      3085.2276      13599.066      65255.129      87120        
     20200   20200          203.30693      297.26238      10552.246      2974.5796      13526.826      65286.46       87120        
     20300   20300          204.31626      294.51952      10503.594      2947.1329      13450.727      65156.824      87120        
     20400   20400          205.31696      296.91042      10527.79       2971.0577      13498.848      65289.403      87120        
     20500   20500          206.30555      299.23799      10550.468      2994.3487      13544.816      65342.577      87120        
     20600   20600          207.32571      297.95983      10574.863      2981.5587      13556.422      65429.888      87120        
     20700   20700          208.3063       304.41747      10531.033      3046.1775      13577.211      65276.814      87120        
     20800   20800          209.30753      300.8627       10524.743      3010.6065      13535.349      65229.695      87120        
     20900   20900          210.30533      298.25606      10470.241      2984.5229      13454.764      65077.176      87120        
     21000   21000          211.30375      299.18525      10490.382      2993.8209      13484.203      65152.49       87120        
     21100   21100          212.28218      302.49121      10535.551      3026.9023      13562.453      65298.438      87120        
     21200   21200          213.28255      301.7751       10549.289      3019.7364      13569.026      65353.798      87120        
     21300   21300          214.28317      301.15238      10559.156      3013.5052      13572.661      65393.246      87120        
     21400   21400          215.27775      304.7151       10513.548      3049.1558      13562.704      65201.999      87120        
     21500   21500          216.3006       297.33319      10536.719      2975.2882      13512.008      65331.893      87120        
     21600   21600          217.30797      288.72446      10551.633      2889.1442      13440.777      65370.088      87120        
     21700   21700          218.29255      295.89033      10571.045      2960.8501      13531.895      65457.813      87120        
     21800   21800          219.28746      308.6329       10510.321      3088.3596      13598.681      65261.691      87120        
     21900   21900          220.29396      297.39663      10562.084      2975.923       13538.007      65363.682      87120        
     22000   22000          221.30269      303.18915      10483.721      3033.8863      13517.607      65164.614      87120        
     22100   22100          222.29797      297.53504      10518.039      2977.308       13495.347      65240.916      87120        
     22200   22200          223.29025      303.63281      10491.368      3038.3258      13529.694      65176.053      87120        
     22300   22300          224.29964      303.72228      10555.074      3039.2211      13594.295      65336.769      87120        
     22400   22400          225.30788      301.49043      10568.201      3016.888       13585.089      65372.214      87120        
     22500   22500          226.29001      296.9595       10526.004      2971.5488      13497.553      65261.749      87120        
     22600   22600          227.28703      295.39569      10522.153      2955.9004      13478.053      65231.765      87120        
     22700   22700          228.26922      296.19026      10538.927      2963.8513      13502.778      65261.964      87120        
     22800   22800          229.28271      304.50461      10481.079      3047.0495      13528.129      65077.097      87120        
     22900   22900          230.28858      301.87367      10471.661      3020.7228      13492.384      65047.611      87120        
     23000   23000          231.31438      293.58895      10459.191      2937.8211      13397.012      65044.659      87120        
     23100   23100          232.31977      293.02598      10488.795      2932.1877      13420.983      65099.089      87120        
     23200   23200          233.3285       301.55213      10477.961      3017.5053      13495.467      65077.032      87120        
     23300   23300          234.34713      301.36444      10550.457      3015.6272      13566.084      65372.227      87120        
     23400   23400          235.35539      298.65411      10601.928      2988.5061      13590.434      65556.718      87120        
     23500   23500          236.37565      295.34525      10579.157      2955.3956      13534.553      65527.377      87120        
     23600   23600          237.39912      293.81553      10565.189      2940.0884      13505.277      65464.271      87120        
     23700   23700          238.42057      301.65951      10548.554      3018.5798      13567.134      65366.096      87120        
     23800   23800          239.44248      302.82087      10560.323      3030.2011      13590.524      65487.634      87120        
     23900   23900          240.47052      299.06416      10595.617      2992.6093      13588.226      65605.449      87120        
     24000   24000          241.50117      301.83573      10557.954      3020.3432      13578.297      65464.95       87120        
     24100   24100          242.5106       295.52731      10562.28       2957.2174      13519.498      65484.17       87120        
     24200   24200          243.51848      289.63108      10611.44       2898.2163      13509.657      65681.536      87120        
     24300   24300          244.53789      306.01174      10564.678      3062.1308      13626.808      65510.957      87120        
     24400   24400          245.5637       301.52838      10571.167      3017.2676      13588.434      65531.977      87120        
     24500   24500          246.59795      295.1878       10585.433      2953.8202      13539.253      65527.474      87120        
     24600   24600          247.63869      294.67216      10574.819      2948.6603      13523.479      65494.663      87120        
     24700   24700          248.68977      297.76142      10581.68       2979.5733      13561.253      65548.365      87120        
     24800   24800          249.72577      304.36062      10563.26       3045.6087      13608.869      65437.963      87120        
     24900   24900          250.75285      303.82578      10488.556      3040.2567      13528.813      65121.22       87120        
     25000   25000          251.78997      294.31139      10543.584      2945.0503      13488.634      65358.683      87120        
     25100   25100          252.79065      298.19653      10517.11       2983.9272      13501.037      65194.517      87120        
     25200   25200          253.80986      298.26801      10502.249      2984.6425      13486.892      65124.792      87120        
     25300   25300          254.82622      300.91971      10470.675      3011.177       13481.852      65009.541      87120        
     25400   25400          255.8396       298.60919      10524.844      2988.0565      13512.901      65262.27       87120        
     25500   25500          256.84792      306.36634      10526.155      3065.6791      13591.834      65233.773      87120        
     25600   25600          257.86588      306.24096      10515.472      3064.4245      13579.896      65176.175      87120        
     25700   25700          258.87292      297.77767      10499.243      2979.7358      13478.979      65120.84       87120        
     25800   25800          259.8946       300.2927       10448.679      3004.9027      13453.582      64948.416      87120        
     25900   25900          260.89518      296.64633      10501.877      2968.415       13470.292      65104.463      87120        
     26000   26000          261.88198      303.03834      10482.038      3032.3772      13514.415      65086.123      87120        
     26100   26100          262.86862      301.1851       10504.323      3013.8326      13518.155      65153.553      87120        
     26200   26200          263.8713       303.48049      10465.644      3036.8016      13502.446      64978.176      87120        
     26300   26300          264.88893      299.41506      10460.874      2996.1206      13456.995      64999.352      87120        
     26400   26400          265.90527      296.1521       10485.487      2963.4695      13448.956      65129.948      87120        
     26500   26500          266.908        299.80553      10516.334      3000.0278      13516.362      65206.206      87120        
     26600   26600          267.93436      301.76543      10577.909      3019.6397      13597.549      65454.686      87120        
     26700   26700          268.9423       303.83313      10542.425      3040.3304      13582.755      65341.944      87120        
     26800   26800          269.97312      297.48301      10557.856      2976.7873      13534.644      65353.86       87120        
     26900   26900          271.00468      300.52278      10540.995      3007.2051      13548.201      65414.397      87120        
     27000   27000          272.0247       297.66601      10595.894      2978.6185      13574.512      65534.352      87120        
     27100   27100          273.02498      300.19203      10590.13       3003.8954      13594.026      65461.888      87120        
     27200   27200          274.02555      295.08246      10613.974      2952.7661      13566.74       65557.783      87120        
     27300   27300          275.04294      294.05403      10581.619      2942.475       13524.094      65479.158      87120        
     27400   27400          276.04608      299.70794      10563.289      2999.0513      13562.34       65385.296      87120        
     27500   27500          277.03308      300.13999      10597.266      3003.3747      13600.64       65516.845      87120        
     27600   27600          278.04821      301.34093      10541.295      3015.3919      13556.687      65292.567      87120        
     27700   27700          279.06447      295.83494      10464.994      2960.2958      13425.29       65019.835      87120        
     27800   27800          280.0628       295.69586      10474.901      2958.9041      13433.805      65074.626      87120        
     27900   27900          281.05951      299.14005      10497.263      2993.3686      13490.631      65128.083      87120        
     28000   28000          282.06129      299.03936      10487.575      2992.361       13479.936      65044.351      87120        
     28100   28100          283.04096      300.55205      10457.934      3007.4979      13465.432      64997.493      87120        
     28200   28200          284.02088      306.92963      10435.134      3071.3157      13506.45       64881.911      87120        
     28300   28300          285.01891      304.21132      10478.186      3044.1147      13522.3        64954.535      87120        
     28400   28400          285.98601      293.26744      10476.874      2934.6039      13411.478      64987.154      87120        
     28500   28500          286.97395      292.94457      10466.726      2931.3731      13398.1        64938.636      87120        
     28600   28600          287.9677       298.21408      10490.888      2984.1029      13474.991      65043.085      87120        
     28700   28700          288.96848      308.83918      10409.04       3090.4237      13499.464      64782.357      87120        
     28800   28800          289.95264      301.40463      10413.124      3016.0294      13429.153      64743.104      87120        
     28900   28900          290.95369      298.1486       10433.135      2983.4476      13416.582      64846.865      87120        
     29000   29000          291.96313      302.47826      10438.901      3026.7727      13465.673      64909.189      87120        
     29100   29100          292.93953      295.61103      10559.448      2958.0552      13517.504      65420.346      87120        
     29200   29200          293.94596      302.27255      10570.017      3024.7143      13594.732      65443.211      87120        
     29300   29300          294.95265      305.45495      10622.736      3056.5592      13679.295      65697.769      87120        
     29400   29400          295.96441      302.447        10568.966      3026.4599      13595.426      65519.544      87120        
     29500   29500          296.97919      297.89689      10571.692      2980.9288      13552.621      65548.656      87120        
     29600   29600          297.98086      299.14371      10576.265      2993.4053      13569.671      65559.879      87120        
     29700   29700          298.99415      299.77421      10612.133      2999.7144      13611.848      65641.713      87120        
     29800   29800          300.01308      304.94285      10576.891      3051.4348      13628.325      65542.03       87120        
     29900   29900          301.01673      298.25071      10585.12       2984.4694      13569.589      65566.793      87120        
     30000   30000          302.03914      300.60835      10567.948      3008.0613      13576.009      65515.896      87120        
     30100   30100          303.03883      297.5225       10628.126      2977.1825      13605.308      65726.224      87120        
     30200   30200          304.05361      299.68643      10634.422      2998.836       13633.258      65756.379      87120        
     30300   30300          305.06182      304.66321      10575.766      3048.6366      13624.403      65505.52       87120        
     30400   30400          306.06956      291.37516      10564.979      2915.6686      13480.648      65454.399      87120        
     30500   30500          307.0784       293.18871      10525.912      2933.8161      13459.728      65274.868      87120        
     30600   30600          308.08719      294.1267       10559.878      2943.2022      13503.08       65338.043      87120        
     30700   30700          309.08406      297.12102      10568.27       2973.165       13541.435      65458.945      87120        
     30800   30800          310.09514      298.57448      10547.479      2987.7092      13535.188      65337.067      87120        
     30900   30900          311.09465      299.17729      10528.265      2993.7413      13522.006      65203.069      87120        
     31000   31000          312.0934       306.77236      10409.681      3069.742       13479.423      64841.562      87120        
     31100   31100          313.06621      292.07618      10456.498      2922.6835      13379.182      64933.535      87120        
     31200   31200          314.03501      301.9515       10387.041      3021.5017      13408.543      64693.361      87120        
     31300   31300          315.02254      302.09661      10437.985      3022.9537      13460.939      64857.374      87120        
     31400   31400          316.01413      297.98125      10513.884      2981.7731      13495.657      65109.434      87120        
     31500   31500          317.00913      309.95491      10439.496      3101.5884      13541.084      64890.887      87120        
     31600   31600          317.99942      301.11223      10506.968      3013.1034      13520.071      65093.979      87120        
     31700   31700          319.00854      297.19684      10454.027      2973.9238      13427.95       64888.616      87120        
     31800   31800          320.0285       293.06725      10491.49       2932.6007      13424.091      64999.401      87120        
     31900   31900          321.0336       301.23972      10504.134      3014.3792      13518.513      65151.732      87120        
     32000   32000          322.05584      306.94142      10527.545      3071.4337      13598.979      65262.283      87120        
     32100   32100          323.0434       300.20927      10512.966      3004.0679      13517.033      65223.705      87120        
     32200   32200          324.03966      293.34319      10536.089      2935.3619      13471.451      65335.997      87120        
     32300   32300          325.06521      304.04474      10522.084      3042.4478      13564.532      65272.246      87120        
     32400   32400          326.07587      302.68585      10574.122      3028.85        13602.972      65459.145      87120        
     32500   32500          327.09965      305.92363      10546.815      3061.2491      13608.064      65448.545      87120        
     32600   32600          328.10355      293.7212       10580.632      2939.1445      13519.776      65523.813      87120        
     32700   32700          329.11306      303.874        10505.352      3040.7393      13546.091      65332.788      87120        
     32800   32800          330.12926      291.62392      10663.127      2918.1579      13581.285      65772.612      87120        
     32900   32900          331.14698      306.00083      10577.626      3062.0216      13639.647      65529.525      87120        
     33000   33000          332.16539      304.15051      10559.866      3043.5062      13603.372      65456.6        87120        
     33100   33100          333.16816      295.64424      10591.466      2958.3875      13549.853      65540.519      87120        
     33200   33200          334.15737      296.05485      10559.119      2962.4964      13521.615      65419.803      87120        
     33300   33300          335.16199      299.84998      10526.254      3000.4726      13526.727      65277.037      87120        
     33400   33400          336.16922      298.6912       10564.53       2988.8772      13553.407      65422.266      87120        
     33500   33500          337.18112      314.849        10500.412      3150.5615      13650.974      65276.641      87120        
     33600   33600          338.18429      294.27089      10620.974      2944.645       13565.619      65570.114      87120        
     33700   33700          339.20666      298.98371      10529.703      2991.8042      13521.507      65275.232      87120        
     33800   33800          340.22024      295.41816      10507.89       2956.1252      13464.016      65164.791      87120        
     33900   33900          341.21548      303.29636      10420.277      3034.9591      13455.237      64856.035      87120        
     34000   34000          342.23081      298.43604      10439.886      2986.3239      13426.21       64879.555      87120        
     34100   34100          343.21327      296.10643      10437.745      2963.0125      13400.758      64875.394      87120        
     34200   34200          344.20323      295.02324      10429.11       2952.1735      13381.283      64868.612      87120        
     34300   34300          345.1996       297.50325      10460.46       2976.9899      13437.45       65011.431      87120        
     34400   34400          346.18026      306.32278      10459.005      3065.2432      13524.248      64948.181      87120        
     34500   34500          347.18998      299.38115      10498.966      2995.7812      13494.747      65121.591      87120        
     34600   34600          348.19783      299.22741      10482.403      2994.2428      13476.646      65090.764      87120        
     34700   34700          349.20165      299.61542      10484.135      2998.1255      13482.261      65056.02       87120        
     34800   34800          350.22616      302.97421      10503.105      3031.7354      13534.841      65140.72       87120        
     34900   34900          351.23383      312.42096      10482.463      3126.2651      13608.728      65156.02       87120        
     35000   35000          352.25278      298.27507      10559.818      2984.7132      13544.531      65330.993      87120        
     35100   35100          353.2496       297.70498      10522.93       2979.0085      13501.938      65286.231      87120        
     35200   35200          354.25665      293.60284      10594.001      2937.9601      13531.961      65564.344      87120        
     35300   35300          355.28832      302.40967      10598.176      3026.0863      13624.262      65571.155      87120        
     35400   35400          356.31925      303.36041      10591.361      3035.6         13626.961      65566.943      87120        
     35500   35500          357.36315      301.91962      10552.325      3021.1827      13573.507      65421.788      87120        
     35600   35600          358.37665      295.33247      10558.261      2955.2678      13513.529      65352.093      87120        
     35700   35700          359.39361      297.58538      10547.054      2977.8117      13524.866      65373.048      87120        
     35800   35800          360.42856      302.26965      10529.38       3024.6852      13554.066      65277.139      87120        
     35900   35900          361.43317      308.68422      10504.676      3088.8732      13593.549      65245.865      87120        
     36000   36000          362.44038      306.41487      10529.364      3066.1647      13595.529      65294.878      87120        
     36100   36100          363.43387      304.72475      10465.198      3049.2524      13514.451      65037.436      87120        
     36200   36200          364.45419      293.46729      10474.314      2936.6038      13410.918      65026.758      87120        
     36300   36300          365.4539       296.89082      10434.178      2970.8615      13405.039      64904.536      87120        
     36400   36400          366.4496       301.34805      10468.558      3015.4632      13484.021      65004.826      87120        
     36500   36500          367.44244      305.10985      10483.184      3053.1059      13536.29       65075.316      87120        
     36600   36600          368.44727      295.02761      10537.468      2952.2171      13489.685      65259.251      87120        
     36700   36700          369.44913      287.32662      10510.118      2875.1566      13385.275      65162.157      87120        
     36800   36800          370.46742      299.79969      10477.075      2999.9694      13477.044      65131.374      87120        
     36900   36900          371.48446      300.42974      10533.805      3006.274       13540.079      65247.82       87120        
     37000   37000          372.49372      303.52875      10508.711      3037.2845      13545.995      65153.617      87120        
     37100   37100          373.48237      300.69107      10514          3008.8891      13522.89       65228.884      87120        
     37200   37200          374.45834      295.14351      10504.47       2953.377       13457.847      65090.889      87120        
     37300   37300          375.45081      297.08268      10464.44       2972.7814      13437.222      65001.991      87120        
     37400   37400          376.43174      300.66477      10519.121      3008.6258      13527.747      65248.874      87120        
     37500   37500          377.43169      309.75408      10522.562      3099.5788      13622.141      65202.325      87120        
     37600   37600          378.43838      306.90722      10515.487      3071.0914      13586.578      65259.102      87120        
     37700   37700          379.42961      295.117        10571.969      2953.1116      13525.081      65478.557      87120        
     37800   37800          380.45318      304.53983      10478.445      3047.402       13525.847      65083.394      87120        
     37900   37900          381.47562      299.20906      10552.687      2994.0592      13546.746      65321.287      87120        
     38000   38000          382.5041       307.60555      10554.048      3078.0793      13632.128      65442.011      87120        
     38100   38100          383.51411      308.71         10558.716      3089.1311      13647.847      65389.388      87120        
     38200   38200          384.49808      296.14453      10576.129      2963.3937      13539.523      65504.374      87120        
     38300   38300          385.50267      295.14576      10564.206      2953.3995      13517.605      65418.442      87120        
     38400   38400          386.50688      302.01555      10550.72       3022.1426      13572.863      65371.564      87120        
     38500   38500          387.51967      309.67292      10503.535      3098.7666      13602.302      65252.836      87120        
     38600   38600          388.53826      291.38884      10590.875      2915.8055      13506.68       65507.961      87120        
     38700   38700          389.53506      294.91828      10504.981      2951.1232      13456.104      65203.146      87120        
     38800   38800          390.5377       297.72538      10527.861      2979.2126      13507.074      65297.289      87120        
     38900   38900          391.52385      301.44047      10514.807      3016.388       13531.195      65298.919      87120        
     39000   39000          392.52876      302.54928      10504.375      3027.4833      13531.858      65176.238      87120        
     39100   39100          393.52485      304.80717      10503.292      3050.0771      13553.369      65239.841      87120        
     39200   39200          394.55502      301.55899      10534.289      3017.574       13551.863      65341.324      87120        
     39300   39300          395.56287      296.25289      10567.645      2964.478       13532.123      65339.089      87120        
     39400   39400          396.58683      303.76338      10470.615      3039.6323      13510.247      65072.096      87120        
     39500   39500          397.60844      301.25497      10448.764      3014.5318      13463.296      64966.86       87120        
     39600   39600          398.62464      293.38894      10489.54       2935.8197      13425.36       65040.515      87120        
     39700   39700          399.62717      295.52689      10555.866      2957.2133      13513.079      65367.636      87120        
     39800   39800          400.63197      310.93048      10467.7        3111.3505      13579.051      65050.599      87120        
     39900   39900          401.63842      301.60722      10511.211      3018.0565      13529.268      65118.878      87120        
     40000   40000          402.664        296.23968      10494.281      2964.3459      13458.626      65148.169      87120        
     40100   40100          403.65696      305.09898      10419.228      3052.9972      13472.225      64910.646      87120        
     40200   40200          404.66821      300.10783      10551.405      3003.0529      13554.458      65285.735      87120        
     40300   40300          405.68366      304.07529      10574.602      3042.7535      13617.356      65383.987      87120        
     40400   40400          406.68665      305.61034      10537.42       3058.1141      13595.534      65330.611      87120        
     40500   40500          407.69747      303.21846      10509.507      3034.1796      13543.687      65121.357      87120        
     40600   40600          408.68902      296.84704      10531.441      2970.4234      13501.864      65296.55       87120        
     40700   40700          409.69095      291.38863      10575.285      2915.8034      13491.088      65387.353      87120        
     40800   40800          410.70523      307.29869      10525.942      3075.0087      13600.951      65268.657      87120        
     40900   40900          411.70367      302.17607      10595.363      3023.7488      13619.112      65524.007      87120        
     41000   41000          412.72714      303.9048       10516.192      3041.0475      13557.239      65240.342      87120        
     41100   41100          413.72453      298.97823      10516.491      2991.7493      13508.24       65158.481      87120        
     41200   41200          414.72183      299.51534      10514.05       2997.1241      13511.174      65247.32       87120        
     41300   41300          415.72791      298.33753      10546.703      2985.3381      13532.041      65296.366      87120        
     41400   41400          416.73314      312.64757      10510.337      3128.5327      13638.869      65178.096      87120        
     41500   41500          417.7243       308.0818       10481.557      3082.845       13564.402      65056.731      87120        
     41600   41600          418.71588      303.21979      10458.99       3034.1929      13493.182      64957.695      87120        
     41700   41700          419.72557      297.06832      10473.306      2972.6377      13445.944      65012.902      87120        
     41800   41800          420.73215      294.24395      10488.541      2944.3755      13432.917      65055.874      87120        
     41900   41900          421.74388      304.27891      10488.705      3044.7911      13533.496      65074.993      87120        
     42000   42000          422.76015      300.65444      10536.251      3008.5225      13544.774      65235.563      87120        
     42100   42100          423.74959      303.71574      10461.283      3039.1557      13500.439      64946.912      87120        
     42200   42200          424.74888      299.02982      10484.297      2992.2657      13476.563      65110.776      87120        
     42300   42300          425.73857      295.38269      10520.733      2955.7703      13476.503      65188.355      87120        
     42400   42400          426.74499      303.31435      10495.38       3035.1391      13530.519      65115.391      87120        
     42500   42500          427.74261      305.756        10497.733      3059.5717      13557.304      65215.585      87120        
     42600   42600          428.75986      291.34828      10521.017      2915.3997      13436.417      65214.282      87120        
     42700   42700          429.76486      294.16537      10522.285      2943.5891      13465.874      65201.126      87120        
     42800   42800          430.75265      299.02656      10589.34       2992.233       13581.573      65559.543      87120        
     42900   42900          431.76917      301.80241      10614.723      3020.0097      13634.732      65599.349      87120        
     43000   43000          432.79001      295.62992      10647.436      2958.2443      13605.68       65734.288      87120        
     43100   43100          433.80874      296.40568      10584.708      2966.0069      13550.715      65558.371      87120        
     43200   43200          434.819        294.55277      10549.695      2947.4656      13497.161      65361.856      87120        
     43300   43300          435.83133      306.22615      10532.113      3064.2762      13596.389      65381.875      87120        
     43400   43400          436.84158      303.31745      10583.141      3035.1701      13618.311      65523.146      87120        
     43500   43500          437.86033      302.54742      10557.629      3027.4648      13585.094      65390.954      87120        
     43600   43600          438.87685      299.11755      10541.847      2993.1435      13534.991      65379.999      87120        
     43700   43700          439.91162      287.2609       10620.695      2874.499       13495.194      65589.812      87120        
     43800   43800          440.93007      300.92005      10580.506      3011.1803      13591.686      65515.597      87120        
     43900   43900          441.95468      306.83261      10521.852      3070.3448      13592.197      65304.59       87120        
     44000   44000          442.97877      302.32816      10505.144      3025.2708      13530.415      65134.38       87120        
     44100   44100          443.99394      294.94994      10550.558      2951.44        13501.998      65322.28       87120        
     44200   44200          444.99675      302.02672      10580.34       3022.2543      13602.595      65415.845      87120        
     44300   44300          445.99895      302.50308      10543.021      3027.0211      13570.042      65178.242      87120        
     44400   44400          446.98804      301.80529      10484.676      3020.0386      13504.714      65138.29       87120        
     44500   44500          447.98755      295.12366      10538.645      2953.1784      13491.823      65252.196      87120        
     44600   44600          448.99215      301.04486      10510.186      3012.4293      13522.615      65098.451      87120        
     44700   44700          449.99969      300.25301      10505.103      3004.5055      13509.609      65115.31       87120        
     44800   44800          451.00822      294.60104      10467.68       2947.9487      13415.628      64919.693      87120        
     44900   44900          452.01355      291.43434      10459.666      2916.2609      13375.927      64943.639      87120        
     45000   45000          453.01289      297.02805      10484.918      2972.2348      13457.152      65040.398      87120        
     45100   45100          453.99346      299.36688      10534.855      2995.6385      13530.494      65179.288      87120        
     45200   45200          454.98951      306.70055      10482.893      3069.0234      13551.916      65069.098      87120        
     45300   45300          456.00549      300.46535      10482.611      3006.6304      13489.241      65071.404      87120        
     45400   45400          456.98966      302.21635      10448.81       3024.1519      13472.962      64962.25       87120        
     45500   45500          457.98817      302.10444      10472.964      3023.0321      13495.996      65038.088      87120        
     45600   45600          458.99541      303.27406      10472.747      3034.736       13507.483      65043.959      87120        
     45700   45700          460.00615      293.41089      10541.526      2936.0393      13477.565      65299.539      87120        
     45800   45800          461.02095      299.62655      10466.404      2998.2369      13464.641      65016.244      87120        
     45900   45900          462.03848      303.43363      10511.872      3036.3327      13548.205      65187.233      87120        
     46000   46000          463.05378      305.89804      10519.914      3060.993       13580.907      65270.769      87120        
     46100   46100          464.03201      297.81932      10555.845      2980.1527      13535.998      65373.445      87120        
     46200   46200          465.02452      296.86964      10526.556      2970.6496      13497.206      65273.933      87120        
     46300   46300          466.02404      296.13979      10562.245      2963.3463      13525.591      65357.611      87120        
     46400   46400          467.01984      306.91498      10525.274      3071.1691      13596.443      65242.713      87120        
     46500   46500          468.00866      301.42957      10532.416      3016.2789      13548.695      65248.305      87120        
     46600   46600          469.02572      297.47596      10528.584      2976.7168      13505.301      65240.773      87120        
     46700   46700          470.01098      300.47047      10526.64       3006.6816      13533.322      65194.386      87120        
     46800   46800          471.01658      302.13654      10526.593      3023.3532      13549.946      65223.985      87120        
     46900   46900          472.0314       307.32571      10495.164      3075.2791      13570.443      65163.948      87120        
     47000   47000          473.06661      297.69552      10509.486      2978.9138      13488.399      65161.956      87120        
     47100   47100          474.0626       295.68383      10488.605      2958.7837      13447.388      65061.811      87120        
     47200   47200          475.07226      299.82626      10498.128      3000.2352      13498.363      65152.85       87120        
     47300   47300          476.07269      307.79301      10494.245      3079.9552      13574.2        65152.902      87120        
     47400   47400          477.06909      297.93655      10575.596      2981.3257      13556.922      65455.202      87120        
     47500   47500          478.07391      292.41668      10534.729      2926.0907      13460.82       65251.555      87120        
     47600   47600          479.07721      289.74104      10494.162      2899.3167      13393.479      65101.87       87120        
     47700   47700          480.07878      296.9371       10528.245      2971.3247      13499.569      65236.954      87120        
     47800   47800          481.09375      305.5933       10506.884      3057.9436      13564.827      65195.442      87120        
     47900   47900          482.1097       306.9329       10493.091      3071.3484      13564.439      65164.739      87120        
     48000   48000          483.11482      297.9334       10490.272      2981.2942      13471.566      65140.018      87120        
     48100   48100          484.12243      295.5725       10471.253      2957.6697      13428.923      65072.842      87120        
     48200   48200          485.10877      297.66615      10493.394      2978.6199      13472.014      65147.423      87120        
     48300   48300          486.11734      302.30611      10532.488      3025.0501      13557.538      65275.316      87120        
     48400   48400          487.14637      301.87299      10525.459      3020.7161      13546.175      65302.983      87120        
     48500   48500          488.15963      302.16848      10495.012      3023.6729      13518.685      65186.962      87120        
     48600   48600          489.18542      299.33058      10508.433      2995.2752      13503.709      65175.854      87120        
     48700   48700          490.20103      307.96942      10535.136      3081.7204      13616.856      65337.751      87120        
     48800   48800          491.2227       303.72935      10586.746      3039.2919      13626.038      65441.502      87120        
     48900   48900          492.26861      296.59643      10577.909      2967.9157      13545.824      65406.024      87120        
     49000   49000          493.27707      297.49356      10512.986      2976.8929      13489.879      65220.759      87120        
     49100   49100          494.2816       298.28313      10515.012      2984.7938      13499.805      65220.598      87120        
     49200   49200          495.27896      299.57721      10535.361      2997.7431      13533.104      65273.523      87120        
     49300   49300          496.31104      306.50044      10532.21       3067.021       13599.232      65287.801      87120        
     49400   49400          497.33972      305.10152      10530.54       3053.0226      13583.562      65204.153      87120        
     49500   49500          498.36607      292.21648      10522.876      2924.0874      13446.963      65208.472      87120        
     49600   49600          499.3897       296.95797      10497.312      2971.5335      13468.846      65085.756      87120        
     49700   49700          500.38807      304.58345      10505.706      3047.8384      13553.544      65119.461      87120        
     49800   49800          501.41183      299.11326      10554.9        2993.1006      13548          65283.75       87120        
     49900   49900          502.44759      299.31201      10480.014      2995.0894      13475.104      65049.566      87120        
     50000   50000          503.48556      297.89265      10458.688      2980.8865      13439.574      64927.404      87120        
     50100   50100          504.5151       303.64975      10421.179      3038.4953      13459.674      64874.739      87120        
     50200   50200          505.52799      300.15466      10477.367      3003.5214      13480.889      64987.352      87120        
     50300   50300          506.53629      299.24489      10539.696      2994.4177      13534.114      65222.434      87120        
     50400   50400          507.54222      304.71397      10541.131      3049.1446      13590.276      65272.243      87120        
     50500   50500          508.54109      299.10168      10522.173      2992.9847      13515.158      65148.762      87120        
     50600   50600          509.5645       301.36028      10479.089      3015.5855      13494.674      65152.552      87120        
     50700   50700          510.56698      302.84972      10506.944      3030.4898      13537.434      65234.739      87120        
     50800   50800          511.57754      308.21564      10498.523      3084.1843      13582.707      65154.652      87120        
     50900   50900          512.57815      302.77572      10537.462      3029.7493      13567.212      65342.786      87120        
     51000   51000          513.60071      293.73595      10586.154      2939.2921      13525.446      65527.358      87120        
     51100   51100          514.59802      299.58282      10557.973      2997.7993      13555.773      65409.615      87120        
     51200   51200          515.60624      302.99834      10611.508      3031.9769      13643.485      65690.463      87120        
     51300   51300          516.59379      304.13922      10605.739      3043.3932      13649.132      65648.843      87120        
     51400   51400          517.60282      302.03456      10574.832      3022.3328      13597.165      65440.383      87120        
     51500   51500          518.61044      296.4133       10589.044      2966.0832      13555.127      65561.067      87120        
     51600   51600          519.62434      298.9722       10573.991      2991.689       13565.68       65495.12       87120        
     51700   51700          520.63331      300.03125      10591.512      3002.2865      13593.798      65489.215      87120        
     51800   51800          521.63941      304.68321      10565.899      3048.8367      13614.735      65439.686      87120        
     51900   51900          522.64606      298.60225      10533.056      2987.9871      13521.043      65285.803      87120        
     52000   52000          523.65345      290.67654      10521.688      2908.6779      13430.366      65156.582      87120        
     52100   52100          524.6374       295.10829      10494.309      2953.0245      13447.334      65137.153      87120        
     52200   52200          525.62598      308.17401      10451.123      3083.7677      13534.891      64977.838      87120        
     52300   52300          526.63039      304.43333      10474.09       3046.3362      13520.427      65027.356      87120        
     52400   52400          527.62197      299.70404      10480.835      2999.0123      13479.847      65050.582      87120        
     52500   52500          528.61908      298.0671       10454.325      2982.6321      13436.957      64952.566      87120        
     52600   52600          529.6114       299.76692      10475.916      2999.6414      13475.557      65045.477      87120        
     52700   52700          530.59221      310.87264      10481.295      3110.7717      13592.067      65080.666      87120        
     52800   52800          531.5857       308.71755      10491.659      3089.2066      13580.865      65196.642      87120        
     52900   52900          532.60207      296.52197      10554.731      2967.1706      13521.901      65318.442      87120        
     53000   53000          533.61528      297.71123      10529.865      2979.071       13508.936      65219.941      87120        
     53100   53100          534.59236      297.03796      10543.439      2972.334       13515.773      65268.645      87120        
     53200   53200          535.57689      301.27933      10506.231      3014.7755      13521.006      65154.751      87120        
     53300   53300          536.57521      301.46716      10531.538      3016.6551      13548.193      65300.788      87120        
     53400   53400          537.56746      296.96964      10581.737      2971.6502      13553.387      65506.626      87120        
     53500   53500          538.56593      297.8255       10586.976      2980.2145      13567.19       65473.055      87120        
     53600   53600          539.57026      307.34211      10527.352      3075.4432      13602.795      65242.045      87120        
     53700   53700          540.57293      303.26746      10548.856      3034.6699      13583.526      65357.655      87120        
     53800   53800          541.57297      294.45156      10537.338      2946.4529      13483.791      65319.888      87120        
     53900   53900          542.55541      294.50437      10520.677      2946.9814      13467.659      65230.705      87120        
     54000   54000          543.55701      298.11833      10528.741      2983.1447      13511.886      65243.208      87120        
     54100   54100          544.54808      302.30241      10511.007      3025.0131      13536.02       65179.195      87120        
     54200   54200          545.537        299.69237      10528.22       2998.8954      13527.115      65218.732      87120        
     54300   54300          546.52186      301.17265      10473.934      3013.708       13487.642      65037.839      87120        
     54400   54400          547.48554      291.0372       10507.371      2912.2868      13419.658      65081.196      87120        
     54500   54500          548.45006      296.6252       10446.337      2968.2036      13414.54       64810.728      87120        
     54600   54600          549.43021      297.19946      10529.906      2973.95        13503.856      65176.817      87120        
     54700   54700          550.41322      304.62651      10479.133      3048.2693      13527.403      65007.691      87120        
     54800   54800          551.39685      300.23117      10495.156      3004.287       13499.443      65042.81       87120        
     54900   54900          552.37965      293.77551      10497.56       2939.688       13437.248      65072.25       87120        
     55000   55000          553.35666      297.29795      10470.363      2974.9355      13445.299      64974.891      87120        
     55100   55100          554.34678      308.48693      10483.424      3086.8989      13570.323      65026.775      87120        
     55200   55200          555.34671      304.21014      10502.31       3044.1029      13546.413      65107.266      87120        
     55300   55300          556.33428      294.72349      10549.845      2949.174       13499.019      65282.781      87120        
     55400   55400          557.34773      296.2931       10543.704      2964.8804      13508.584      65236.035      87120        
     55500   55500          558.3477       299.83836      10608.909      3000.3564      13609.265      65535.083      87120        
     55600   55600          559.34959      305.66991      10574.828      3058.7102      13633.538      65444.453      87120        
     55700   55700          560.34599      293.5437       10573.744      2937.3684      13511.113      65367.83       87120        
     55800   55800          561.34541      303.03437      10503.018      3032.3375      13535.356      65169.817      87120        
     55900   55900          562.35045      293.38066      10633.571      2935.7368      13569.307      65631.909      87120        
     56000   56000          563.35786      303.95636      10582.366      3041.5634      13623.93       65443.666      87120        
     56100   56100          564.34757      299.23168      10576.314      2994.2855      13570.6        65457.604      87120        
     56200   56200          565.35801      296.67598      10550.175      2968.7117      13518.887      65384.71       87120        
     56300   56300          566.35764      291.94873      10615.342      2921.4081      13536.75       65592.027      87120        
     56400   56400          567.35275      305.69406      10578.24       3058.9519      13637.192      65478.631      87120        
     56500   56500          568.344        303.4842       10545.996      3036.8387      13582.834      65332.24       87120        
     56600   56600          569.32556      300.44379      10499.367      3006.4146      13505.782      65142.307      87120        
     56700   56700          570.31879      298.31323      10469.735      2985.095       13454.83       65033.235      87120        
     56800   56800          571.32094      295.93176      10516.188      2961.2646      13477.452      65187.187      87120        
     56900   56900          572.32188      306.94439      10502.539      3071.4634      13574.002      65177.788      87120        
     57000   57000          573.32674      301.83099      10535.012      3020.2957      13555.308      65286.595      87120        
     57100   57100          574.3194       297.96989      10484.159      2981.6593      13465.818      65133.064      87120        
     57200   57200          575.2991       298.31092      10459.719      2985.0719      13444.791      65032.404      87120        
     57300   57300          576.28706      298.94729      10466.164      2991.4398      13457.604      65012.565      87120        
     57400   57400          577.28156      304.47734      10444.168      3046.7767      13490.945      64947.626      87120        
     57500   57500          578.29001      299.95197      10516.061      3001.4932      13517.554      65156.851      87120        
     57600   57600          579.29903      296.46562      10576.798      2966.6067      13543.405      65388.164      87120        
     57700   57700          580.30505      313.27616      10541.954      3134.8227      13676.776      65395.315      87120        
     57800   57800          581.30769      312.03504      10528.684      3122.4034      13651.088      65328.325      87120        
     57900   57900          582.29246      301.86654      10530.188      3020.6515      13550.839      65244.355      87120        
     58000   58000          583.29498      304.942        10467.687      3051.4264      13519.113      65132.047      87120        
     58100   58100          584.28405      297.66531      10483.899      2978.6116      13462.511      65101.772      87120        
     58200   58200          585.26034      296.94226      10481.952      2971.3763      13453.328      65083.225      87120        
     58300   58300          586.25759      300.5987       10553.157      3007.9647      13561.122      65351.67       87120        
     58400   58400          587.26087      306.58257      10509.696      3067.8429      13577.539      65135.29       87120        
     58500   58500          588.25951      298.20637      10556.115      2984.0257      13540.14       65361.318      87120        
     58600   58600          589.25999      298.6883       10511.684      2988.8481      13500.532      65219.63       87120        
     58700   58700          590.24619      293.5588       10558.775      2937.5194      13496.295      65363.343      87120        
     58800   58800          591.24097      298.332        10534.993      2985.2828      13520.276      65315.761      87120        
     58900   58900          592.24245      298.03189      10511.452      2982.2797      13493.731      65158          87120        
     59000   59000          593.24226      298.33191      10521.437      2985.2819      13506.719      65167.758      87120        
     59100   59100          594.24107      303.28649      10490.876      3034.8603      13525.736      65101.761      87120        
     59200   59200          595.23561      295.21178      10469.919      2954.0601      13423.98       64996.006      87120        
     59300   59300          596.22986      290.95368      10472.927      2911.4511      13384.378      64978.492      87120        
     59400   59400          597.22093      294.49603      10519.961      2946.8979      13466.859      65198.559      87120        
     59500   59500          598.21318      301.4609       10508.726      3016.5924      13525.319      65162.928      87120        
     59600   59600          599.19557      301.15316      10525.558      3013.513       13539.071      65181.622      87120        
     59700   59700          600.1658       302.66539      10485.675      3028.6453      13514.32       65056.394      87120        
     59800   59800          601.14755      294.44874      10468.774      2946.4247      13415.199      65000.012      87120        
     59900   59900          602.13907      293.69701      10506.162      2938.9025      13445.064      65116.016      87120        
     60000   60000          603.13172      297.2773       10574.155      2974.7288      13548.884      65435.007      87120        
     60100   60100          604.11266      300.67842      10584.379      3008.7624      13593.141      65435.984      87120        
     60200   60200          605.10796      303.572        10565.735      3037.7173      13603.452      65310.807      87120        
     60300   60300          606.10913      299.72719      10523.822      2999.2439      13523.066      65253.943      87120        
     60400   60400          607.11523      296.25663      10505.104      2964.5155      13469.619      65122.58       87120        
     60500   60500          608.11322      299.78695      10535.963      2999.8419      13535.804      65242.552      87120        
     60600   60600          609.10705      304.83827      10532.588      3050.3884      13582.976      65313.467      87120        
     60700   60700          610.10209      300.51781      10556.751      3007.1553      13563.906      65370.319      87120        
     60800   60800          611.08651      298.2041       10527.339      2984.003       13511.342      65210.563      87120        
     60900   60900          612.07487      290.31754      10489.504      2905.0855      13394.59       65124.226      87120        
     61000   61000          613.05106      297.77812      10462.593      2979.7404      13442.334      64957.675      87120        
     61100   61100          614.0293       300.78602      10518.98       3009.8392      13528.82       65205.88       87120        
     61200   61200          615.01569      300.46676      10552.82       3006.6445      13559.465      65349.831      87120        
     61300   61300          616.00702      298.38855      10551.935      2985.8487      13537.783      65278.491      87120        
     61400   61400          617.00377      297.21568      10516.854      2974.1123      13490.966      65191.028      87120        
     61500   61500          617.99175      297.97959      10521.638      2981.7564      13503.395      65245.622      87120        
     61600   61600          618.98594      304.71881      10536.764      3049.1929      13585.957      65221.918      87120        
     61700   61700          619.96108      304.0738       10545.577      3042.7386      13588.316      65291.192      87120        
     61800   61800          620.95375      295.28523      10547.392      2954.7951      13502.187      65280.321      87120        
     61900   61900          621.93736      298.09508      10525.921      2982.912       13508.833      65232.706      87120        
     62000   62000          622.93694      300.52118      10547.379      3007.189       13554.568      65329.13       87120        
     62100   62100          623.93149      299.60262      10572.048      2997.9974      13570.046      65419.838      87120        
     62200   62200          624.91947      300.37375      10577.067      3005.7138      13582.781      65424.121      87120        
     62300   62300          625.94365      295.77847      10599.653      2959.7308      13559.384      65564.067      87120        
     62400   62400          626.94931      294.58915      10572.741      2947.8297      13520.57       65430.007      87120        
     62500   62500          627.93749      303.76832      10558.678      3039.6818      13598.359      65399.296      87120        
     62600   62600          628.93715      306.18905      10564.451      3063.905       13628.356      65450.641      87120        
     62700   62700          629.92198      301.49828      10523.284      3016.9664      13540.251      65217.606      87120        
     62800   62800          630.91951      294.27289      10575.941      2944.665       13520.606      65369.081      87120        
     62900   62900          631.92209      301.50701      10527.341      3017.0538      13544.395      65264.418      87120        
     63000   63000          632.91363      300.83984      10483.587      3010.3777      13493.964      65094.345      87120        
     63100   63100          633.88383      295.81596      10481.171      2960.1059      13441.277      65018.417      87120        
     63200   63200          634.86587      298.44151      10450.48       2986.3786      13436.858      64916.052      87120        
     63300   63300          635.85432      298.94158      10480.323      2991.3827      13471.706      65022.341      87120        
     63400   63400          636.84648      297.7111       10518.644      2979.0697      13497.714      65172.312      87120        
     63500   63500          637.8412       304.42622      10523.325      3046.2651      13569.59       65228.05       87120        
     63600   63600          638.83683      307.5516       10543.53       3077.5395      13621.07       65337.257      87120        
     63700   63700          639.84408      302.63163      10542.856      3028.3074      13571.163      65365.113      87120        
     63800   63800          640.85227      295.18403      10540.781      2953.7825      13494.564      65321.48       87120        
     63900   63900          641.84724      300.68062      10532.617      3008.7845      13541.401      65277.611      87120        
     64000   64000          642.86041      308.46637      10496.588      3086.6932      13583.282      65181.298      87120        
     64100   64100          643.84622      303.47729      10536.944      3036.7695      13573.714      65325.799      87120        
     64200   64200          644.83873      292.58474      10573.238      2927.7724      13501.01       65421.24       87120        
     64300   64300          645.84366      292.46594      10606.532      2926.5837      13533.116      65500.432      87120        
     64400   64400          646.84945      306.45882      10602.815      3066.6045      13669.42       65561.244      87120        
     64500   64500          647.85133      302.00733      10603.178      3022.0603      13625.239      65566.08       87120        
     64600   64600          648.85567      296.09386      10566.685      2962.8867      13529.571      65424.175      87120        
     64700   64700          649.86441      299.93367      10519.145      3001.31        13520.455      65194.221      87120        
     64800   64800          650.86826      300.88242      10560.054      3010.8038      13570.858      65391.533      87120        
     64900   64900          651.87803      308.35165      10565.362      3085.5453      13650.907      65401.333      87120        
     65000   65000          652.88551      305.87654      10596.75       3060.7779      13657.528      65486.539      87120        
     65100   65100          653.88577      296.80788      10552.845      2970.0316      13522.877      65311.73       87120        
     65200   65200          654.88515      300.30058      10491.098      3004.9816      13496.079      65136.273      87120        
     65300   65300          655.88455      297.68293      10547.115      2978.7878      13525.902      65285.193      87120        
     65400   65400          656.87173      306.12492      10515.279      3063.2633      13578.543      65219.339      87120        
     65500   65500          657.85338      306.72497      10505.902      3069.2677      13575.17       65120.954      87120        
     65600   65600          658.83907      296.07282      10489.293      2962.6761      13451.969      65061.494      87120        
     65700   65700          659.83271      296.83436      10462.805      2970.2966      13433.102      65012.298      87120        
     65800   65800          660.83722      298.58621      10498.173      2987.8266      13485.999      65071.958      87120        
     65900   65900          661.8251       304.67242      10506.74       3048.7287      13555.469      65186.863      87120        
     66000   66000          662.85331      302.98089      10548.795      3031.8023      13580.597      65355.681      87120        
     66100   66100          663.85252      303.94244      10517.457      3041.4241      13558.881      65199.711      87120        
     66200   66200          664.84652      301.62267      10491.942      3018.2112      13510.153      65165.626      87120        
     66300   66300          665.84481      296.50502      10556.297      2967.001       13523.298      65372.844      87120        
     66400   66400          666.82106      303.89779      10511.33       3040.9773      13552.308      65244.15       87120        
     66500   66500          667.82327      297.87357      10613.312      2980.6955      13594.008      65601.175      87120        
     66600   66600          668.82131      306.81298      10599.014      3070.1484      13669.162      65607.795      87120        
     66700   66700          669.85585      299.89036      10628.518      3000.8767      13629.394      65597.435      87120        
     66800   66800          670.8743       301.40992      10537.492      3016.0823      13553.574      65367.155      87120        
     66900   66900          671.89546      301.8973       10546.264      3020.9593      13567.223      65386.17       87120        
     67000   67000          672.89587      301.77735      10534.492      3019.759       13554.251      65318.244      87120        
     67100   67100          673.90405      300.98681      10524.377      3011.8484      13536.226      65310.255      87120        
     67200   67200          674.90715      296.12239      10532.07       2963.1722      13495.243      65316.487      87120        
     67300   67300          675.91145      300.10021      10470.707      3002.9766      13473.684      65096.256      87120        
     67400   67400          676.90074      301.87509      10520.825      3020.737       13541.562      65254.911      87120        
     67500   67500          677.90851      301.75189      10579.209      3019.5042      13598.713      65401.143      87120        
     67600   67600          678.91763      298.44119      10607.456      2986.3754      13593.831      65548.661      87120        
     67700   67700          679.93285      295.15478      10535.04       2953.4897      13488.53       65238.734      87120        
     67800   67800          680.92134      292.99068      10495.829      2931.8345      13427.664      65134.507      87120        
     67900   67900          681.92699      296.5009       10543.228      2966.9598      13510.188      65239.441      87120        
     68000   68000          682.92674      300.43494      10531.196      3006.326       13537.522      65204.327      87120        
     68100   68100          683.9028       304.31954      10520.916      3045.1976      13566.114      65207.348      87120        
     68200   68200          684.90184      303.88142      10536.411      3040.8135      13577.225      65306.546      87120        
     68300   68300          685.90899      293.55842      10592.089      2937.5156      13529.604      65463.86       87120        
     68400   68400          686.92144      299.30761      10552.879      2995.0453      13547.925      65364.952      87120        
     68500   68500          687.93811      305.1399       10564.245      3053.4066      13617.652      65410.029      87120        
     68600   68600          688.96892      309.12711      10558.723      3093.3049      13652.028      65372.505      87120        
     68700   68700          689.97132      295.37306      10573.102      2955.674       13528.776      65404.062      87120        
     68800   68800          690.98872      295.53997      10571.32       2957.3441      13528.664      65402.821      87120        
     68900   68900          691.99743      298.90195      10598.412      2990.986       13589.398      65525.465      87120        
     69000   69000          693.00543      306.91351      10569.287      3071.1544      13640.441      65505.296      87120        
     69100   69100          693.99931      296.62439      10607.582      2968.1955      13575.777      65573.26       87120        
     69200   69200          695.00935      290.27264      10570.601      2904.6362      13475.237      65447.425      87120        
     69300   69300          696.00783      296.44857      10585.87       2966.4362      13552.306      65529.027      87120        
     69400   69400          697.0012       301.98668      10579.968      3021.8537      13601.822      65463.149      87120        
     69500   69500          697.99425      298.37034      10572.557      2985.6665      13558.224      65420.618      87120        
     69600   69600          698.99497      294.83213      10572.02       2950.2611      13522.281      65360.091      87120        
     69700   69700          699.9948       293.49324      10553.144      2936.8634      13490.008      65328.515      87120        
     69800   69800          701.01236      297.84451      10536.702      2980.4047      13517.107      65273.153      87120        
     69900   69900          702.0312       311.42734      10458.973      3116.3224      13575.295      65068.302      87120        
     70000   70000          703.02448      299.40625      10516.23       2996.0324      13512.263      65241.468      87120        
     70100   70100          704.0059       296.79131      10510.569      2969.8658      13480.435      65155.307      87120        
     70200   70200          704.98633      304.31534      10512.743      3045.1556      13557.898      65256.949      87120        
     70300   70300          705.97172      309.56397      10525.148      3097.6764      13622.825      65328.141      87120        
     70400   70400          706.95408      306.16183      10479.305      3063.6327      13542.937      65106.092      87120        
     70500   70500          707.95809      298.18315      10505.524      2983.7934      13489.317      65187.586      87120        
     70600   70600          708.96115      300.51576      10509.629      3007.1348      13516.764      65206.607      87120        
     70700   70700          709.94714      305.10039      10533.239      3053.0112      13586.25       65356.521      87120        
     70800   70800          710.95325      307.24434      10513.535      3074.4648      13588          65226.349      87120        
     70900   70900          711.95853      295.81388      10516.671      2960.085       13476.756      65263.217      87120        
     71000   71000          712.97371      291.37196      10583.561      2915.6367      13499.198      65479.967      87120        
     71100   71100          713.96311      301.36112      10571.62       3015.5939      13587.214      65426.382      87120        
     71200   71200          714.96905      300.42331      10593.355      3006.2097      13599.564      65525.86       87120        
     71300   71300          715.96438      303.03316      10526.248      3032.3254      13558.573      65308.309      87120        
     71400   71400          716.95963      296.93269      10550.315      2971.2805      13521.596      65346.328      87120        
     71500   71500          717.93354      299.20212      10511.159      2993.9898      13505.149      65267.177      87120        
     71600   71600          718.93187      299.8947       10545.771      3000.9201      13546.691      65344.719      87120        
     71700   71700          719.93886      306.40638      10548.384      3066.0797      13614.464      65346.8        87120        
     71800   71800          720.95488      298.36478      10621.542      2985.6108      13607.152      65582.353      87120        
     71900   71900          721.96954      300.47922      10506.896      3006.7692      13513.665      65211.308      87120        
     72000   72000          722.96769      289.82042      10531.624      2900.111       13431.735      65199.731      87120        
     72100   72100          723.93873      296.9253       10516.503      2971.2066      13487.71       65181.293      87120        
     72200   72200          724.92984      300.02125      10537.249      3002.1864      13539.435      65251.627      87120        
     72300   72300          725.92087      305.47787      10513.175      3056.7886      13569.964      65181.529      87120        
     72400   72400          726.91554      297.99754      10531.699      2981.936       13513.635      65206.976      87120        
     72500   72500          727.91992      291.03516      10491.717      2912.2664      13403.983      65047.01       87120        
     72600   72600          728.92712      295.58622      10494.184      2957.807       13451.991      65056.737      87120        
     72700   72700          729.91208      305.08262      10444.132      3052.8334      13496.965      64903.104      87120        
     72800   72800          730.89276      307.53705      10424.349      3077.3939      13501.743      64823.249      87120        
     72900   72900          731.88896      298.94846      10478.813      2991.4515      13470.264      64949.973      87120        
     73000   73000          732.88785      297.0604       10481.488      2972.5585      13454.047      65049.01       87120        
     73100   73100          733.86441      302.10033      10461.072      3022.9909      13484.063      64974.954      87120        
     73200   73200          734.85368      307.12875      10490.966      3073.3082      13564.274      65067.009      87120        
     73300   73300          735.85526      304.49089      10534.341      3046.9123      13581.253      65261.668      87120        
     73400   73400          736.86211      293.72682      10556.543      2939.2007      13495.744      65290.297      87120        
     73500   73500          737.88591      295.23706      10521.745      2954.3131      13476.058      65187.674      87120        
     73600   73600          738.89969      308.07157      10477.998      3082.7426      13560.741      65058.372      87120        
     73700   73700          739.92926      303.68135      10598.86       3038.8115      13637.672      65488.551      87120        
     73800   73800          740.93631      309.24535      10526.656      3094.4881      13621.144      65303.024      87120        
     73900   73900          741.93363      300.38991      10599.632      3005.8755      13605.508      65602.472      87120        
     74000   74000          742.9487       300.4165       10587.219      3006.1416      13593.361      65498.258      87120        
     74100   74100          743.94284      300.44485      10579.601      3006.4252      13586.026      65447.877      87120        
     74200   74200          744.95475      296.05549      10564.025      2962.5028      13526.528      65415.621      87120        
     74300   74300          745.94929      296.61922      10502.068      2968.1437      13470.211      65120.175      87120        
     74400   74400          746.95339      302.56016      10514.346      3027.5923      13541.938      65212.333      87120        
     74500   74500          747.92318      303.94063      10560.865      3041.406       13602.271      65419.554      87120        
     74600   74600          748.91395      299.65583      10575.652      2998.5298      13574.182      65405.615      87120        
     74700   74700          749.90813      294.13559      10556.526      2943.2912      13499.817      65329.915      87120        
     74800   74800          750.92036      286.30089      10547.695      2864.8925      13412.587      65245.207      87120        
     74900   74900          751.95821      297.52308      10510.386      2977.1883      13487.574      65107.213      87120        
     75000   75000          752.98199      305.02496      10490.07       3052.2564      13542.327      65064.26       87120        
     75100   75100          753.9728       297.81627      10520.848      2980.1221      13500.97       65171.724      87120        
     75200   75200          754.93699      294.9708       10503.021      2951.6487      13454.67       65055.098      87120        
     75300   75300          755.9226       298.68265      10510.367      2988.7916      13499.159      65087.862      87120        
     75400   75400          756.90887      305.27549      10569.696      3054.7634      13624.46       65397.874      87120        
     75500   75500          757.88747      303.37376      10605.096      3035.7336      13640.829      65511.984      87120        
     75600   75600          758.87185      297.72851      10576.519      2979.2439      13555.763      65417.905      87120        
     75700   75700          759.87366      301.11842      10529.633      3013.1654      13542.798      65228.922      87120        
     75800   75800          760.85916      304.69932      10490.689      3048.9979      13539.687      65125.141      87120        
     75900   75900          761.8586       292.80545      10541.265      2929.9809      13471.246      65237.475      87120        
     76000   76000          762.85796      292.34589      10518.25       2925.3823      13443.632      65178.837      87120        
     76100   76100          763.82742      304.77541      10521.142      3049.7593      13570.901      65221.565      87120        
     76200   76200          764.82746      306.66508      10541.573      3068.6685      13610.241      65314.22       87120        
     76300   76300          765.83873      301.85145      10524.365      3020.5005      13544.865      65267.426      87120        
     76400   76400          766.83605      295.64332      10545.693      2958.3783      13504.071      65327.249      87120        
     76500   76500          767.84113      296.77418      10549.273      2969.6943      13518.968      65259.652      87120        
     76600   76600          768.8353       302.20516      10593.651      3024.04        13617.691      65481.549      87120        
     76700   76700          769.84699      303.69351      10588.739      3038.9332      13627.673      65415.006      87120        
     76800   76800          770.832        298.7519       10594.576      2989.4846      13584.061      65447.482      87120        
     76900   76900          771.82395      303.64033      10512.808      3038.401       13551.209      65237.341      87120        
     77000   77000          772.8064       293.82743      10531.274      2940.2075      13471.482      65189.557      87120        
     77100   77100          773.7935       296.64552      10474.968      2968.407       13443.375      65022.436      87120        
     77200   77200          774.77389      310.58476      10472.533      3107.891       13580.424      65045.39       87120        
     77300   77300          775.77237      302.34974      10587.947      3025.4866      13613.433      65479.124      87120        
     77400   77400          776.77498      301.56166      10540.285      3017.6006      13557.886      65299.903      87120        
     77500   77500          777.78128      299.93055      10525.855      3001.2789      13527.134      65240.538      87120        
     77600   77600          778.78008      295.64382      10604.897      2958.3833      13563.28       65500.518      87120        
     77700   77700          779.77956      301.26642      10573.616      3014.6463      13588.263      65418.895      87120        
     77800   77800          780.77552      302.04948      10560.814      3022.4821      13583.296      65370.722      87120        
     77900   77900          781.7758       296.87822      10585.391      2970.7355      13556.127      65457.47       87120        
     78000   78000          782.78292      302.01917      10579.089      3022.1787      13601.268      65357.245      87120        
     78100   78100          783.77272      307.041        10573.814      3072.4301      13646.244      65381.612      87120        
     78200   78200          784.75012      303.99009      10565.763      3041.901       13607.664      65381.582      87120        
     78300   78300          785.74992      296.49744      10567.331      2966.9252      13534.256      65385.328      87120        
     78400   78400          786.73425      297.54539      10543.014      2977.4116      13520.425      65254.375      87120        
     78500   78500          787.72595      304.42758      10516.788      3046.2788      13563.067      65210.412      87120        
     78600   78600          788.72172      307.55826      10460.866      3077.6062      13538.472      64958.846      87120        
     78700   78700          789.7099       298.86553      10492.869      2990.6216      13483.49       65009.955      87120        
     78800   78800          790.68408      299.64287      10459.469      2998.4001      13457.869      64845.588      87120        
     78900   78900          791.65966      297.38129      10465.047      2975.7694      13440.816      64881.934      87120        
     79000   79000          792.64537      296.84722      10486.886      2970.4253      13457.311      64951.688      87120        
     79100   79100          793.61452      304.79292      10452.482      3049.9345      13502.416      64804.725      87120        
     79200   79200          794.58833      304.83771      10424.58       3050.3827      13474.963      64706.537      87120        
     79300   79300          795.55948      293.23251      10469.762      2934.2544      13404.017      64885.649      87120        
     79400   79400          796.53291      297.15021      10469.339      2973.4571      13442.796      64882.488      87120        
     79500   79500          797.51166      300.07309      10493.663      3002.7052      13496.368      65051.41       87120        
     79600   79600          798.50015      300.42597      10488.068      3006.2363      13494.305      65039.099      87120        
     79700   79700          799.47723      291.97323      10487.098      2921.6533      13408.751      65030.61       87120        
     79800   79800          800.47994      292.78819      10533.931      2929.8083      13463.739      65203.495      87120        
     79900   79900          801.48499      303.81985      10510.591      3040.1975      13550.788      65147.444      87120        
     80000   80000          802.49213      304.65922      10537.658      3048.5966      13586.255      65296.727      87120        
     80100   80100          803.51248      298.85637      10566.586      2990.53        13557.116      65442.663      87120        
     80200   80200          804.52693      299.95415      10555.533      3001.515       13557.048      65442.203      87120        
     80300   80300          805.55297      294.98745      10660.265      2951.8153      13612.081      65856.913      87120        
     80400   80400          806.56811      310.86573      10600.272      3110.7026      13710.974      65655.648      87120        
     80500   80500          807.58215      301.27558      10646.379      3014.738       13661.117      65796.378      87120        
     80600   80600          808.5862       295.53459      10632.766      2957.2904      13590.056      65737.168      87120        
     80700   80700          809.60467      296.62343      10625.871      2968.1859      13594.057      65720.17       87120        
     80800   80800          810.63289      301.85839      10596.234      3020.5699      13616.803      65636.311      87120        
     80900   80900          811.65545      303.10513      10602.631      3033.0456      13635.676      65628.461      87120        
     81000   81000          812.67347      301.15443      10593.565      3013.5257      13607.091      65526.486      87120        
     81100   81100          813.65401      295.39061      10528.42       2955.8496      13484.269      65358.857      87120        
     81200   81200          814.6606       288.89774      10540.445      2890.8782      13431.324      65341.345      87120        
     81300   81300          815.66558      294.5752       10553.824      2947.6901      13501.514      65352.97       87120        
     81400   81400          816.66656      300.41318      10509.845      3006.1083      13515.953      65194.81       87120        
     81500   81500          817.66134      302.92971      10461.052      3031.2901      13492.342      64999.323      87120        
     81600   81600          818.63995      302.03648      10415.441      3022.352       13437.793      64716.976      87120        
     81700   81700          819.63287      290.73458      10459.787      2909.2586      13369.045      64923.369      87120        
     81800   81800          820.63194      297.33551      10395.398      2975.3114      13370.709      64727.807      87120        
     81900   81900          821.63905      303.81712      10446.145      3040.1701      13486.315      64812.53       87120        
     82000   82000          822.6624       301.51319      10504.494      3017.1157      13521.61       65142.979      87120        
     82100   82100          823.65052      303.20634      10444.822      3034.0583      13478.88       64934.682      87120        
     82200   82200          824.63893      295.15927      10461.202      2953.5347      13414.737      64912.536      87120        
     82300   82300          825.63286      297.86816      10491.351      2980.6413      13471.992      65062.817      87120        
     82400   82400          826.627        302.96144      10533.83       3031.6077      13565.438      65255.716      87120        
     82500   82500          827.62572      304.37924      10524.941      3045.795       13570.736      65241.671      87120        
     82600   82600          828.62996      298.73573      10557.217      2989.3228      13546.54       65384.429      87120        
     82700   82700          829.62788      292.73609      10589.299      2929.2869      13518.585      65495.754      87120        
     82800   82800          830.63889      295.71654      10593.393      2959.111       13552.504      65477.398      87120        
     82900   82900          831.65364      308.35473      10587.908      3085.5761      13673.484      65554.764      87120        
     83000   83000          832.66615      303.29938      10614.094      3034.9893      13649.084      65679.384      87120        
     83100   83100          833.65371      299.72084      10587.506      2999.1803      13586.686      65500.136      87120        
     83200   83200          834.6557       296.35239      10575.394      2965.4737      13540.868      65436.704      87120        
     83300   83300          835.65742      302.31204      10512.716      3025.1094      13537.825      65281.019      87120        
     83400   83400          836.63535      306.39745      10536.721      3065.9904      13602.711      65316.467      87120        
     83500   83500          837.63313      310.84496      10539.323      3110.4947      13649.818      65353.938      87120        
     83600   83600          838.63455      303.23966      10540.174      3034.3917      13574.566      65323.686      87120        
     83700   83700          839.64008      302.47936      10475.525      3026.7838      13502.309      65076.053      87120        
     83800   83800          840.64259      299.24807      10467.227      2994.4495      13461.677      65003.847      87120        
     83900   83900          841.64255      299.76258      10440.121      2999.5981      13439.719      64930.316      87120        
     84000   84000          842.6196       294.6654       10530.716      2948.5927      13479.309      65256.831      87120        
     84100   84100          843.59528      301.75125      10531.784      3019.4978      13551.282      65213.327      87120        
     84200   84200          844.58181      302.5838       10513.797      3027.8289      13541.626      65125.062      87120        
     84300   84300          845.56902      297.33669      10492.582      2975.3232      13467.905      65065.64       87120        
     84400   84400          846.5577       294.00658      10475.471      2942.0001      13417.471      65005.238      87120        
     84500   84500          847.55062      302.84206      10458.611      3030.4131      13489.024      64967.481      87120        
     84600   84600          848.55882      302.5257       10491.697      3027.2474      13518.944      65101.565      87120        
     84700   84700          849.55436      303.57423      10460.173      3037.7396      13497.913      64957.575      87120        
     84800   84800          850.54985      296.02521      10502.455      2962.1997      13464.655      65111.354      87120        
     84900   84900          851.54272      304.82524      10456.578      3050.258       13506.836      64980.465      87120        
     85000   85000          852.54256      305.88876      10522.519      3060.9001      13583.419      65211.237      87120        
     85100   85100          853.52131      298.82834      10543.472      2990.2495      13533.721      65292.492      87120        
     85200   85200          854.51699      291.22972      10522.462      2914.2133      13436.675      65229.141      87120        
     85300   85300          855.49471      298.4403       10504.735      2986.3666      13491.102      65209.293      87120        
     85400   85400          856.48432      300.21298      10539.808      3004.105       13543.913      65252.639      87120        
     85500   85500          857.47581      302.14373      10534.085      3023.4252      13557.51       65304.316      87120        
     85600   85600          858.4641       299.3564       10503.247      2995.5336      13498.78       65205.999      87120        
     85700   85700          859.45224      300.63889      10470.816      3008.3669      13479.183      65060.756      87120        
     85800   85800          860.45458      296.80245      10542.943      2969.9772      13512.92       65322.471      87120        
     85900   85900          861.45002      299.68726      10559.732      2998.8444      13558.576      65363.211      87120        
     86000   86000          862.47729      300.6142       10589.918      3008.1199      13598.038      65448.706      87120        
     86100   86100          863.48291      302.01         10599.679      3022.087       13621.766      65559.126      87120        
     86200   86200          864.48603      303.1723       10629.747      3033.7177      13663.465      65638.317      87120        
     86300   86300          865.4826       307.22183      10552.47       3074.2396      13626.71       65345.89       87120        
     86400   86400          866.48935      297.90782      10521.742      2981.0382      13502.78       65222.983      87120        
     86500   86500          867.48253      297.71826      10523.767      2979.1414      13502.909      65188.691      87120        
     86600   86600          868.4738       301.2929       10496.558      3014.9113      13511.47       65138.2        87120        
     86700   86700          869.48168      297.26793      10494.529      2974.6351      13469.164      65151.101      87120        
     86800   86800          870.49224      290.00069      10518.977      2901.9149      13420.892      65111.076      87120        
     86900   86900          871.50294      297.1696       10516.243      2973.6512      13489.894      65167.649      87120        
     87000   87000          872.48356      303.63848      10505.325      3038.3825      13543.707      65190.821      87120        
     87100   87100          873.45695      299.51393      10497.745      2997.1099      13494.855      65027.038      87120        
     87200   87200          874.44154      295.74945      10486.052      2959.4403      13445.493      64983.212      87120        
     87300   87300          875.44537      295.57355      10488.687      2957.6802      13446.368      65091.749      87120        
     87400   87400          876.4359       304.4583       10502.579      3046.5861      13549.165      65135.441      87120        
     87500   87500          877.43595      304.99031      10551.169      3051.9097      13603.079      65378.626      87120        
     87600   87600          878.43955      298.94582      10545.603      2991.4251      13537.028      65320.014      87120        
     87700   87700          879.44611      298.77864      10488.165      2989.7521      13477.917      65105.318      87120        
     87800   87800          880.45459      295.32382      10537.387      2955.1812      13492.569      65327.37       87120        
     87900   87900          881.45753      303.70134      10521.917      3039.0115      13560.928      65238.168      87120        
     88000   88000          882.4596       300.87387      10538.334      3010.7183      13549.052      65311.628      87120        
     88100   88100          883.44702      287.32819      10565.726      2875.1723      13440.899      65386.016      87120        
     88200   88200          884.44094      295.98964      10536.851      2961.8438      13498.694      65302.309      87120        
     88300   88300          885.45184      304.54274      10520.024      3047.4311      13567.455      65206.282      87120        
     88400   88400          886.48451      298.69791      10551.532      2988.9443      13540.477      65314.348      87120        
     88500   88500          887.48774      298.89301      10480.842      2990.8966      13471.738      65104.944      87120        
     88600   88600          888.50286      287.83455      10501.161      2880.2392      13381.4        65094.863      87120        
     88700   88700          889.50123      291.88188      10547.849      2920.7392      13468.588      65304.468      87120        
     88800   88800          890.51446      300.17755      10557.276      3003.7504      13561.027      65444.912      87120        
     88900   88900          891.5129       300.90522      10596.783      3011.0319      13607.815      65540.134      87120        
     89000   89000          892.5196       305.64698      10554.683      3058.4807      13613.164      65358.454      87120        
     89100   89100          893.5142       304.66985      10491.309      3048.703       13540.012      65132.951      87120        
     89200   89200          894.51786      287.85346      10568.604      2880.4285      13449.032      65291.737      87120        
     89300   89300          895.52064      294.76416      10543.997      2949.581       13493.578      65302.643      87120        
     89400   89400          896.53134      302.65136      10504.604      3028.5048      13533.109      65143.897      87120        
     89500   89500          897.54033      301.43451      10526.456      3016.3284      13542.785      65160.817      87120        
     89600   89600          898.5294       301.83291      10505.009      3020.315       13525.323      65146.67       87120        
     89700   89700          899.51811      294.49159      10487.433      2946.8535      13434.287      65009.808      87120        
     89800   89800          900.50679      297.99855      10449.265      2981.9461      13431.212      64866.57       87120        
     89900   89900          901.4903       295.74661      10510.566      2959.4119      13469.978      65183.42       87120        
     90000   90000          902.46033      298.61547      10505.368      2988.1194      13493.487      65105.165      87120        
     90100   90100          903.43732      303.2538       10469.887      3034.5332      13504.42       64926.35       87120        
     90200   90200          904.42254      298.96229      10494.756      2991.5899      13486.346      65087.785      87120        
     90300   90300          905.40762      291.28797      10469.683      2914.7962      13384.479      64906.378      87120        
     90400   90400          906.38195      293.63492      10449.813      2938.2811      13388.094      64911.329      87120        
     90500   90500          907.39227      306.12298      10481.851      3063.2439      13545.095      65060.46       87120        
     90600   90600          908.40229      305.72891      10531.007      3059.3006      13590.308      65261.385      87120        
     90700   90700          909.41696      298.65137      10548.325      2988.4786      13536.804      65356.828      87120        
     90800   90800          910.42274      299.22604      10543.885      2994.2291      13538.114      65376.839      87120        
     90900   90900          911.45329      298.81561      10563.968      2990.1221      13554.09       65413.9        87120        
     91000   91000          912.48421      301.96589      10577.559      3021.6456      13599.205      65499.203      87120        
     91100   91100          913.49791      303.85872      10628.928      3040.5864      13669.515      65719.118      87120        
     91200   91200          914.53235      297.13246      10681.037      2973.2795      13654.317      65862.408      87120        
     91300   91300          915.55006      299.08122      10601.016      2992.7799      13593.796      65597.449      87120        
     91400   91400          916.55776      298.84741      10573.463      2990.4404      13563.903      65539.077      87120        
     91500   91500          917.56766      295.59642      10634.716      2957.909       13592.625      65740.602      87120        
     91600   91600          918.58622      299.37074      10656.026      2995.6771      13651.703      65766.51       87120        
     91700   91700          919.60335      307.23583      10597.622      3074.3797      13672.002      65609.433      87120        
     91800   91800          920.6122       302.43017      10591.638      3026.2915      13617.929      65541.968      87120        
     91900   91900          921.63137      302.13442      10549.406      3023.3321      13572.738      65407.041      87120        
     92000   92000          922.64695      297.3373       10540.548      2975.3292      13515.877      65261.931      87120        
     92100   92100          923.65319      296.98822      10500.807      2971.8362      13472.643      65119.437      87120        
     92200   92200          924.64103      298.6533       10505.664      2988.498       13494.162      65149.64       87120        
     92300   92300          925.64483      307.60279      10462.829      3078.0518      13540.881      65007.627      87120        
     92400   92400          926.64429      297.27419      10492.188      2974.6978      13466.886      65053.733      87120        
     92500   92500          927.65603      293.87657      10474.107      2940.6992      13414.807      65027.219      87120        
     92600   92600          928.64653      301.802        10456.58       3020.0056      13476.586      64921.464      87120        
     92700   92700          929.63558      304.0354       10510.185      3042.3544      13552.539      65131.039      87120        
     92800   92800          930.63764      304.24179      10503.386      3044.4196      13547.805      65131.543      87120        
     92900   92900          931.64936      297.18717      10512.477      2973.827       13486.304      65063.237      87120        
     93000   93000          932.64126      294.65543      10454.869      2948.4929      13403.362      64880.596      87120        
     93100   93100          933.6209       296.03687      10454.094      2962.3164      13416.411      64923.654      87120        
     93200   93200          934.61437      300.98998      10490.068      3011.8802      13501.948      65010.379      87120        
     93300   93300          935.60543      301.55924      10524.045      3017.5765      13541.622      65209.829      87120        
     93400   93400          936.61572      297.59619      10567.59       2977.9199      13545.51       65358.693      87120        
     93500   93500          937.63496      304.17744      10528.341      3043.7757      13572.116      65243.555      87120        
     93600   93600          938.64708      304.20612      10520.839      3044.0627      13564.902      65236.569      87120        
     93700   93700          939.67307      295.73058      10497.612      2959.2515      13456.863      65109.278      87120        
     93800   93800          940.68449      299.67407      10492.066      2998.7123      13490.778      65081.434      87120        
     93900   93900          941.6749       302.52516      10548.567      3027.242       13575.809      65406.304      87120        
     94000   94000          942.68338      303.70078      10578.858      3039.006       13617.864      65473.67       87120        
     94100   94100          943.68173      306.45913      10535.446      3066.6076      13602.054      65316.953      87120        
     94200   94200          944.68965      299.71387      10571.272      2999.1106      13570.382      65480.956      87120        
     94300   94300          945.69102      295.4108       10596.581      2956.0516      13552.633      65517.773      87120        
     94400   94400          946.69897      305.37585      10523.361      3055.7676      13579.129      65239.776      87120        
     94500   94500          947.70429      301.0243       10571.419      3012.2236      13583.643      65508.025      87120        
     94600   94600          948.7109       293.62334      10564.284      2938.1652      13502.449      65364.33       87120        
     94700   94700          949.71438      293.24296      10550.003      2934.359       13484.362      65378.231      87120        
     94800   94800          950.71672      303.83772      10565.403      3040.3763      13605.779      65449.684      87120        
     94900   94900          951.74         300.57683      10580.687      3007.7459      13588.433      65383.407      87120        
     95000   95000          952.76245      302.04328      10502.476      3022.42        13524.896      65214.253      87120        
     95100   95100          953.74394      295.67873      10483.452      2958.7327      13442.185      65101.809      87120        
     95200   95200          954.73236      301.35446      10432.161      3015.5274      13447.688      64852.144      87120        
     95300   95300          955.73552      304.29902      10497.957      3044.9923      13542.949      65125.807      87120        
     95400   95400          956.71458      301.59354      10522.296      3017.9196      13540.216      65193.76       87120        
     95500   95500          957.69598      298.03326      10514.733      2982.2935      13497.026      65085.853      87120        
     95600   95600          958.69294      301.31094      10474.446      3015.0918      13489.537      65019.356      87120        
     95700   95700          959.713        297.36159      10436.802      2975.5723      13412.375      64861.161      87120        
     95800   95800          960.71039      288.69191      10419.908      2888.8185      13308.727      64783.816      87120        
     95900   95900          961.70643      289.96023      10476.467      2901.51        13377.977      64988.585      87120        
     96000   96000          962.69524      300.07893      10446.048      3002.7636      13448.812      64946.709      87120        
     96100   96100          963.65453      298.56132      10525.339      2987.5775      13512.917      65201.607      87120        
     96200   96200          964.63606      307.44263      10468.588      3076.4491      13545.038      65083.424      87120        
     96300   96300          965.60976      295.35282      10556.134      2955.4714      13511.605      65351.399      87120        
     96400   96400          966.61159      294.52194      10530.88       2947.1571      13478.037      65264.385      87120        
     96500   96500          967.63274      298.72099      10506.692      2989.1753      13495.867      65234.586      87120        
     96600   96600          968.63723      309.92926      10562.796      3101.3317      13664.127      65464.929      87120        
     96700   96700          969.66667      308.85315      10569.03       3090.5635      13659.594      65501.055      87120        
     96800   96800          970.6777       298.29501      10616.09       2984.9127      13601.003      65671.817      87120        
     96900   96900          971.68951      296.03132      10635.258      2962.2609      13597.519      65730.128      87120        
     97000   97000          972.69986      300.27203      10623.668      3004.6959      13628.364      65702.324      87120        
     97100   97100          973.69793      298.55197      10674.544      2987.484       13662.028      65895.158      87120        
     97200   97200          974.69186      295.43135      10684.856      2956.2572      13641.113      65903.864      87120        
     97300   97300          975.71196      295.21937      10664.535      2954.136       13618.671      65837.22       87120        
     97400   97400          976.7435       298.89316      10632.613      2990.8981      13623.511      65755.691      87120        
     97500   97500          977.74677      300.51274      10668.972      3007.1046      13676.076      65913.33       87120        
     97600   97600          978.76323      308.38447      10580.313      3085.8736      13666.187      65560.233      87120        
     97700   97700          979.76887      296.10516      10587.929      2962.9998      13550.929      65542.461      87120        
     97800   97800          980.77197      290.51034      10550.052      2907.0148      13457.067      65368.943      87120        
     97900   97900          981.77911      294.63752      10562.608      2948.3138      13510.922      65463.563      87120        
     98000   98000          982.79313      296.27458      10602.217      2964.6951      13566.912      65525.052      87120        
     98100   98100          983.79132      300.90152      10576.529      3010.9949      13587.524      65458.764      87120        
     98200   98200          984.78994      306.1821       10526.148      3063.8355      13589.983      65266.337      87120        
     98300   98300          985.7949       299.88264      10488.179      3000.7995      13488.979      65126.052      87120        
     98400   98400          986.78951      291.66027      10446.944      2918.5216      13365.466      64858.676      87120        
     98500   98500          987.81098      295.115        10467.993      2953.0916      13421.084      64975.181      87120        
     98600   98600          988.82422      298.20179      10457.694      2983.9798      13441.674      64917.983      87120        
     98700   98700          989.85931      302.88222      10429.298      3030.815       13460.113      64805.647      87120        
     98800   98800          990.85553      298.41651      10480.491      2986.1285      13466.619      64963.91       87120        
     98900   98900          991.86646      298.87836      10467.086      2990.75        13457.837      64956.779      87120        
     99000   99000          992.85521      305.78314      10466.712      3059.8433      13526.555      64973.513      87120        
     99100   99100          993.83927      309.39707      10491.387      3096.0063      13587.393      65103.965      87120        
     99200   99200          994.83456      295.67735      10539.469      2958.7189      13498.188      65196.426      87120        
     99300   99300          995.82355      295.2881       10512.002      2954.8238      13466.826      65133.778      87120        
     99400   99400          996.79931      296.65307      10516.377      2968.4825      13484.859      65165.034      87120        
     99500   99500          997.78601      298.54239      10503.622      2987.3881      13491.01       65123.02       87120        
     99600   99600          998.78114      299.55347      10531.78       2997.5056      13529.286      65228.907      87120        
     99700   99700          999.77742      299.07163      10605.03       2992.684       13597.714      65501.109      87120        
     99800   99800          1000.763       302.9398       10563.222      3031.3912      13594.614      65417.141      87120        
     99900   99900          1001.7401      300.56157      10536.242      3007.5932      13543.835      65299.737      87120        
    100000   100000         1002.7393      296.93856      10554.596      2971.3393      13525.935      65352.226      87120        
    100100   100100         1003.7339      300.90259      10487.393      3011.0057      13498.398      65085.165      87120        
    100200   100200         1004.7452      294.19709      10491.639      2943.9065      13435.545      65169.428      87120        
    100300   100300         1005.7617      289.03741      10590.189      2892.2758      13482.465      65469.769      87120        
    100400   100400         1006.7627      306.58854      10515.331      3067.9026      13583.233      65260.271      87120        
    100500   100500         1007.7765      302.14433      10509.055      3023.4312      13532.486      65269.264      87120        
    100600   100600         1008.7883      294.52651      10527.198      2947.2029      13474.401      65242.013      87120        
    100700   100700         1009.7818      298.22795      10535.585      2984.2417      13519.827      65347.672      87120        
    100800   100800         1010.7915      303.95871      10548.366      3041.587       13589.953      65426.884      87120        
    100900   100900         1011.8021      301.51309      10552.247      3017.1146      13569.362      65380.701      87120        
    101000   101000         1012.8135      300.27242      10505.04       3004.6998      13509.74       65179.534      87120        
    101100   101100         1013.82        304.55295      10469.911      3047.5332      13517.445      65090.051      87120        
    101200   101200         1014.829       300.10709      10549.414      3003.0454      13552.459      65363.782      87120        
    101300   101300         1015.8371      304.92191      10546.158      3051.2253      13597.384      65316.015      87120        
    101400   101400         1016.8369      301.92741      10557.227      3021.2606      13578.488      65355.118      87120        
    101500   101500         1017.8368      296.2408       10527.634      2964.3571      13491.992      65204.538      87120        
    101600   101600         1018.8335      297.58819      10470.851      2977.8399      13448.691      65009.908      87120        
    101700   101700         1019.8269      297.93449      10520.426      2981.3051      13501.731      65223.152      87120        
    101800   101800         1020.8053      299.4795       10588.26       2996.7654      13585.025      65453.218      87120        
    101900   101900         1021.8063      302.60906      10557.38       3028.0816      13585.462      65355.898      87120        
    102000   102000         1022.8132      295.75147      10550.687      2959.4606      13510.147      65307.505      87120        
    102100   102100         1023.7863      297.44779      10528.754      2976.4349      13505.189      65263.651      87120        
    102200   102200         1024.781       306.1855       10515.126      3063.8695      13578.995      65195.691      87120        
    102300   102300         1025.7592      303.27868      10538.728      3034.7822      13573.51       65322.041      87120        
    102400   102400         1026.7337      292.48835      10542.502      2926.8079      13469.31       65326.429      87120        
    102500   102500         1027.7202      295.40138      10530.509      2955.9574      13486.466      65267.446      87120        
    102600   102600         1028.7194      305.79224      10502.289      3059.9343      13562.223      65180.16       87120        
    102700   102700         1029.7081      298.25575      10553.763      2984.5199      13538.283      65338.538      87120        
    102800   102800         1030.7174      294.53485      10567.081      2947.2864      13514.367      65343.67       87120        
    102900   102900         1031.7142      301.81596      10526.286      3020.1453      13546.431      65236.112      87120        
    103000   103000         1032.7004      309.65679      10538.858      3098.6052      13637.463      65322.535      87120        
    103100   103100         1033.689       312.17579      10457.923      3123.8119      13581.735      65010.688      87120        
    103200   103200         1034.6704      301.86447      10482.432      3020.6308      13503.063      65137.102      87120        
    103300   103300         1035.6537      293.545        10544.306      2937.3813      13481.688      65307.541      87120        
    103400   103400         1036.6371      297.07949      10529.014      2972.7494      13501.763      65211.068      87120        
    103500   103500         1037.6469      299.67889      10534.7        2998.7606      13533.461      65259.809      87120        
    103600   103600         1038.6459      303.60131      10530.381      3038.0106      13568.391      65215.35       87120        
    103700   103700         1039.6368      300.42656      10506.21       3006.2422      13512.452      65142.903      87120        
    103800   103800         1040.6236      290.58748      10555.43       2907.7867      13463.217      65327.637      87120        
    103900   103900         1041.6162      298.57126      10530.132      2987.677       13517.809      65276.234      87120        
    104000   104000         1042.6198      300.82625      10579.54       3010.2417      13589.782      65463.323      87120        
    104100   104100         1043.5879      298.00582      10622.387      2982.0189      13604.406      65630.214      87120        
    104200   104200         1044.5877      301.57355      10593.985      3017.7197      13611.705      65573.161      87120        
    104300   104300         1045.5921      304.37446      10517.057      3045.7472      13562.804      65299.669      87120        
    104400   104400         1046.6045      304.85435      10464.756      3050.5492      13515.305      65047.992      87120        
    104500   104500         1047.6104      297.04865      10523.738      2972.4409      13496.179      65221.518      87120        
    104600   104600         1048.615       299.11232      10545.358      2993.0911      13538.449      65401.956      87120        
    104700   104700         1049.5965      301.28843      10529.897      3014.8666      13544.763      65305.225      87120        
    104800   104800         1050.5882      299.13228      10538.592      2993.2909      13531.883      65308.879      87120        
    104900   104900         1051.5864      307.69813      10520.145      3079.0058      13599.151      65271.308      87120        
    105000   105000         1052.5964      311.10574      10533.113      3113.1043      13646.217      65360.266      87120        
    105100   105100         1053.5977      297.23048      10581.427      2974.2603      13555.687      65502.708      87120        
    105200   105200         1054.6162      296.70905      10554.482      2969.0426      13523.524      65336.926      87120        
    105300   105300         1055.6178      304.18199      10494.97       3043.8213      13538.791      65186.049      87120        
    105400   105400         1056.6129      307.20198      10473.594      3074.041       13547.635      65060          87120        
    105500   105500         1057.6044      294.2239       10506.833      2944.1748      13451.008      65098.661      87120        
    105600   105600         1058.5946      293.8634       10483.906      2940.5675      13424.474      65105.304      87120        
    105700   105700         1059.5902      302.06919      10517.695      3022.6793      13540.374      65242.634      87120        
    105800   105800         1060.5944      298.68962      10587.082      2988.8614      13575.943      65408.135      87120        
    105900   105900         1061.5925      298.35992      10593.563      2985.5622      13579.125      65522.209      87120        
    106000   106000         1062.6066      297.11556      10557.371      2973.1104      13530.481      65344.036      87120        
    106100   106100         1063.5886      292.83708      10522.973      2930.2975      13453.271      65199.419      87120        
    106200   106200         1064.5907      298.47256      10543.374      2986.6894      13530.063      65346.347      87120        
    106300   106300         1065.5729      301.55138      10545.838      3017.4978      13563.336      65247.301      87120        
    106400   106400         1066.549       299.03557      10536.673      2992.3232      13528.996      65228.641      87120        
    106500   106500         1067.5454      300.79302      10474.793      3009.9092      13484.702      65056.228      87120        
    106600   106600         1068.5562      295.23109      10503.085      2954.2533      13457.338      65120.302      87120        
    106700   106700         1069.5517      299.85608      10578.034      3000.5336      13578.567      65463.339      87120        
    106800   106800         1070.5768      304.38324      10575.79       3045.835       13621.625      65459.446      87120        
    106900   106900         1071.584       300.71455      10556.22       3009.124       13565.344      65349.581      87120        
    107000   107000         1072.5974      303.15608      10465.565      3033.5554      13499.12       65085.139      87120        
    107100   107100         1073.5683      296.50191      10467.647      2966.9699      13434.617      65004.062      87120        
    107200   107200         1074.5686      299.8784       10500.856      3000.757       13501.613      65161.609      87120        
    107300   107300         1075.5653      307.84923      10530.892      3080.5178      13611.409      65299.06       87120        
    107400   107400         1076.5533      301.5009       10556.405      3016.9927      13573.398      65366.02       87120        
    107500   107500         1077.5712      297.60544      10551.698      2978.0125      13529.711      65382.869      87120        
    107600   107600         1078.5701      300.48059      10550.317      3006.7829      13557.1        65344.72       87120        
    107700   107700         1079.5858      306.53158      10541.405      3067.3326      13608.738      65295.618      87120        
    107800   107800         1080.5994      296.81296      10608.966      2970.0824      13579.049      65507.965      87120        
    107900   107900         1081.586       293.69732      10530.793      2938.9056      13469.698      65257.251      87120        
    108000   108000         1082.5973      296.58734      10526.34       2967.8247      13494.165      65197.363      87120        
    108100   108100         1083.5822      299.42584      10531.491      2996.2284      13527.719      65205.045      87120        
    108200   108200         1084.5779      304.47857      10476.64       3046.789       13523.429      65054.549      87120        
    108300   108300         1085.5928      291.72646      10543.729      2919.184       13462.913      65245.458      87120        
    108400   108400         1086.5905      296.06963      10455.243      2962.6443      13417.887      64982.995      87120        
    108500   108500         1087.569       300.28846      10474.814      3004.8603      13479.674      65020.555      87120        
    108600   108600         1088.5676      302.47914      10514.136      3026.7815      13540.918      65186.916      87120        
    108700   108700         1089.5507      301.31312      10504.62       3015.1136      13519.733      65127.948      87120        
    108800   108800         1090.5459      299.61915      10487.253      2998.1627      13485.415      65070.247      87120        
    108900   108900         1091.5186      297.43105      10484.235      2976.2674      13460.502      65039.837      87120        
    109000   109000         1092.512       294.34095      10549.013      2945.346       13494.359      65244.756      87120        
    109100   109100         1093.4751      303.13884      10549.241      3033.3828      13582.624      65288.637      87120        
    109200   109200         1094.4538      300.79622      10567.456      3009.9413      13577.397      65399.15       87120        
    109300   109300         1095.4389      296.70245      10538.038      2968.9766      13507.014      65268.473      87120        
    109400   109400         1096.4096      294.76959      10502.105      2949.6352      13451.74       65121.983      87120        
    109500   109500         1097.3881      293.11636      10510.373      2933.0921      13443.465      65132.615      87120        
    109600   109600         1098.3775      304.60985      10514.331      3048.1026      13562.433      65220.85       87120        
    109700   109700         1099.38        304.51802      10530.904      3047.1838      13578.087      65237.615      87120        
    109800   109800         1100.379       299.06055      10530.969      2992.5731      13523.542      65232.175      87120        
    109900   109900         1101.3789      295.49622      10531.974      2956.9064      13488.881      65299.147      87120        
    110000   110000         1102.3811      298.27402      10545.132      2984.7027      13529.835      65333.164      87120        
    110100   110100         1103.359       305.47438      10537.125      3056.7536      13593.878      65327.924      87120        
    110200   110200         1104.3578      307.33159      10489.147      3075.338       13564.485      65187.283      87120        
    110300   110300         1105.3565      294.78293      10556.032      2949.7688      13505.801      65340.121      87120        
    110400   110400         1106.3513      296.17915      10568.853      2963.7402      13532.593      65409.8        87120        
    110500   110500         1107.3524      302.06194      10560.507      3022.6067      13583.114      65409.411      87120        
    110600   110600         1108.3565      301.40499      10575.79       3016.033       13591.823      65435.288      87120        
    110700   110700         1109.3644      302.11793      10528.956      3023.167       13552.123      65272.944      87120        
    110800   110800         1110.3664      295.70804      10512.887      2959.026       13471.913      65207.658      87120        
    110900   110900         1111.3882      298.00662      10507.101      2982.0269      13489.128      65164.061      87120        
    111000   111000         1112.3977      302.90445      10537.814      3031.0374      13568.851      65258.811      87120        
    111100   111100         1113.3872      304.83422      10514.558      3050.3478      13564.906      65226.953      87120        
    111200   111200         1114.3788      300.13033      10506.037      3003.2779      13509.315      65157.8        87120        
    111300   111300         1115.367       292.30963      10572.733      2925.0195      13497.753      65384.114      87120        
    111400   111400         1116.3641      299.48872      10556.681      2996.8576      13553.539      65358.541      87120        
    111500   111500         1117.3818      306.78605      10533.069      3069.8789      13602.948      65301.596      87120        
    111600   111600         1118.403       301.15038      10540.31       3013.4852      13553.795      65308.14       87120        
    111700   111700         1119.4213      297.40844      10545.046      2976.0412      13521.087      65340.89       87120        
    111800   111800         1120.4309      298.55797      10515.202      2987.544       13502.746      65210.486      87120        
    111900   111900         1121.4479      295.31156      10570.017      2955.0586      13525.075      65312.5        87120        
    112000   112000         1122.4381      307.20381      10578.945      3074.0593      13653.005      65468.059      87120        
    112100   112100         1123.4296      306.14158      10547.443      3063.43        13610.873      65352.966      87120        
    112200   112200         1124.4151      299.01836      10556.819      2992.151       13548.97       65325.504      87120        
    112300   112300         1125.4038      301.55944      10477.117      3017.5784      13494.695      65088.107      87120        
    112400   112400         1126.4058      294.6915       10501.617      2948.8539      13450.471      65113.955      87120        
    112500   112500         1127.3996      304.97443      10468.707      3051.7508      13520.458      65038.298      87120        
    112600   112600         1128.4009      301.05966      10559.426      3012.5773      13572.003      65360.913      87120        
    112700   112700         1129.3882      300.78724      10533.47       3009.8514      13543.321      65222.903      87120        
    112800   112800         1130.3917      296.98248      10528.447      2971.7787      13500.226      65170.724      87120        
    112900   112900         1131.3807      296.50153      10543.472      2966.966       13510.438      65305.161      87120        
    113000   113000         1132.4091      299.41062      10551.529      2996.0762      13547.606      65279.547      87120        
    113100   113100         1133.4032      307.56799      10505.48       3077.7035      13583.183      65140.482      87120        
    113200   113200         1134.4201      300.23674      10534.272      3004.3428      13538.614      65201.012      87120        
    113300   113300         1135.4097      289.96608      10516.608      2901.5686      13418.176      65143.23       87120        
    113400   113400         1136.4092      286.35556      10528.541      2865.4396      13393.981      65223.047      87120        
    113500   113500         1137.4001      296.54067      10545.752      2967.3577      13513.11       65253.145      87120        
    113600   113600         1138.392       302.88721      10569.625      3030.8649      13600.489      65391.755      87120        
    113700   113700         1139.398       303.47991      10594.936      3036.7958      13631.732      65477.08       87120        
    113800   113800         1140.4217      301.67171      10561.636      3018.7019      13580.338      65326.106      87120        
    113900   113900         1141.4371      294.0959       10537.236      2942.8939      13480.13       65289.73       87120        
    114000   114000         1142.4429      297.23306      10516.506      2974.2862      13490.792      65224.968      87120        
    114100   114100         1143.4309      300.49603      10511.121      3006.9374      13518.058      65157.923      87120        
    114200   114200         1144.4242      303.14541      10492.133      3033.4485      13525.582      65106.57       87120        
    114300   114300         1145.4288      301.56246      10498.307      3017.6087      13515.916      65116.027      87120        
    114400   114400         1146.4064      293.99717      10497.423      2941.906       13439.329      65137.859      87120        
    114500   114500         1147.4144      290.68183      10532.936      2908.7308      13441.667      65306.711      87120        
    114600   114600         1148.4177      300.13074      10515.765      3003.2821      13519.047      65227.425      87120        
    114700   114700         1149.4239      299.70367      10556.131      2999.0086      13555.14       65358.213      87120        
    114800   114800         1150.4272      302.56106      10560.519      3027.6013      13588.12       65411.302      87120        
    114900   114900         1151.4214      300.63452      10569.501      3008.3232      13577.824      65481.963      87120        
    115000   115000         1152.404       299.87377      10548.109      3000.7107      13548.82       65350.805      87120        
    115100   115100         1153.3964      295.86281      10594.942      2960.5747      13555.516      65476.277      87120        
    115200   115200         1154.4007      303.91189      10576.523      3041.1184      13617.642      65494.221      87120        
    115300   115300         1155.3986      297.40597      10622.213      2976.0164      13598.229      65603.524      87120        
    115400   115400         1156.3875      296.94187      10557.421      2971.3724      13528.794      65379.359      87120        
    115500   115500         1157.3806      299.46555      10538.4        2996.6258      13535.026      65284.732      87120        
    115600   115600         1158.3763      306.14669      10558.514      3063.4811      13621.995      65372.205      87120        
    115700   115700         1159.3739      307.13025      10520.911      3073.3232      13594.234      65243.962      87120        
    115800   115800         1160.3662      298.57035      10499.184      2987.6679      13486.852      65084.511      87120        
    115900   115900         1161.3589      301.86222      10469.491      3020.6083      13490.1        64990.949      87120        
    116000   116000         1162.3668      300.85775      10486.71       3010.5569      13497.267      65070.11       87120        
    116100   116100         1163.3644      297.17061      10537.604      2973.6612      13511.265      65223.798      87120        
    116200   116200         1164.3593      302.74949      10526.403      3029.4868      13555.89       65190.827      87120        
    116300   116300         1165.3541      307.67852      10482.628      3078.8095      13561.438      65082.952      87120        
    116400   116400         1166.3366      297.5089       10491.475      2977.0464      13468.521      65060.48       87120        
    116500   116500         1167.3271      299.39244      10456.805      2995.8942      13452.699      65007.856      87120        
    116600   116600         1168.3086      295.73502      10532.391      2959.2959      13491.686      65218.073      87120        
    116700   116700         1169.3115      302.41528      10551.693      3026.1425      13577.836      65287.416      87120        
    116800   116800         1170.3155      304.28862      10558.563      3044.8883      13603.451      65400.118      87120        
    116900   116900         1171.3064      295.42778      10526.637      2956.2215      13482.858      65290.193      87120        
    117000   117000         1172.3102      299.14246      10514.22       2993.3927      13507.613      65240.49       87120        
    117100   117100         1173.2987      301.97141      10558.295      3021.7009      13579.996      65424.882      87120        
    117200   117200         1174.2847      299.86304      10627.293      3000.6033      13627.897      65675.297      87120        
    117300   117300         1175.2946      299.49889      10600.026      2996.9595      13596.986      65550.99       87120        
    117400   117400         1176.3052      296.26056      10520.326      2964.5548      13484.88       65281.932      87120        
    117500   117500         1177.2973      294.70141      10561.384      2948.953       13510.337      65410.509      87120        
    117600   117600         1178.3003      302.29444      10573.249      3024.9333      13598.182      65478.447      87120        
    117700   117700         1179.3017      301.23467      10598.335      3014.3286      13612.663      65561.363      87120        
    117800   117800         1180.3065      301.57277      10538.196      3017.7119      13555.907      65351.671      87120        
    117900   117900         1181.2953      296.6372       10512.454      2968.3237      13480.777      65261.858      87120        
    118000   118000         1182.2956      293.78791      10543.379      2939.812       13483.191      65318.667      87120        
    118100   118100         1183.284       301.40155      10569.929      3015.9985      13585.928      65469.58       87120        
    118200   118200         1184.2651      308.50719      10505.069      3087.1017      13592.17       65232.058      87120        
    118300   118300         1185.2564      305.24962      10447.132      3054.5046      13501.636      64972.87       87120        
    118400   118400         1186.2426      295.40157      10468.585      2955.9593      13424.544      65008.941      87120        
    118500   118500         1187.2266      297.32083      10469.084      2975.1644      13444.248      65023.943      87120        
    118600   118600         1188.2173      300.80672      10497.875      3010.0463      13507.922      65095.142      87120        
    118700   118700         1189.197       305.70759      10426.061      3059.0872      13485.148      64871.118      87120        
    118800   118800         1190.1917      295.68273      10496.3        2958.7727      13455.073      65072.137      87120        
    118900   118900         1191.1882      304.50373      10471.816      3047.0407      13518.857      65071.914      87120        
    119000   119000         1192.1881      305.99918      10479.066      3062.0051      13541.071      65046.012      87120        
    119100   119100         1193.1777      297.1791       10498.707      2973.7462      13472.453      65048.039      87120        
    119200   119200         1194.1694      288.00633      10509.313      2881.9582      13391.272      65130.875      87120        
    119300   119300         1195.1448      299.63175      10459.55       2998.2889      13457.839      64911.491      87120        
    119400   119400         1196.1448      301.41447      10457.459      3016.1278      13473.587      64921.69       87120        
    119500   119500         1197.1203      292.33827      10548.809      2925.3061      13474.115      65259.917      87120        
    119600   119600         1198.134       305.96728      10493.389      3061.6859      13555.075      65099.145      87120        
    119700   119700         1199.1226      306.27943      10487.019      3064.8094      13551.829      65108.239      87120        
    119800   119800         1200.1304      302.70782      10447.232      3029.0698      13476.302      64960.008      87120        
    119900   119900         1201.148       296.29772      10531.358      2964.9266      13496.285      65229.044      87120        
    120000   120000         1202.149       300.18575      10533.862      3003.8325      13537.694      65273.492      87120        
    120100   120100         1203.1247      301.44293      10599.001      3016.4126      13615.413      65518.245      87120        
    120200   120200         1204.1255      309.05452      10567.537      3092.5785      13660.116      65452.781      87120        
    120300   120300         1205.1428      299.45107      10551.575      2996.4809      13548.056      65415.458      87120        
    120400   120400         1206.1572      300.99953      10504.111      3011.9756      13516.086      65241.179      87120        
    120500   120500         1207.1761      299.10505      10504.018      2993.0184      13497.037      65158.912      87120        
    120600   120600         1208.1897      306.16072      10502.418      3063.6215      13566.04       65187.08       87120        
    120700   120700         1209.1711      302.62028      10527.335      3028.1939      13555.529      65290.049      87120        
    120800   120800         1210.1864      295.52054      10523.478      2957.1497      13480.628      65319.662      87120        
    120900   120900         1211.1992      297.02798      10538.398      2972.2341      13510.632      65351.074      87120        
    121000   121000         1212.1906      302.85272      10514.336      3030.5198      13544.856      65218.488      87120        
    121100   121100         1213.1838      299.12234      10541.009      2993.1914      13534.201      65385.798      87120        
    121200   121200         1214.1878      299.17834      10536.909      2993.7518      13530.661      65327.094      87120        
    121300   121300         1215.1931      304.80479      10572.775      3050.0533      13622.828      65415.714      87120        
    121400   121400         1216.2007      303.82581      10572.252      3040.2571      13612.509      65441.556      87120        
    121500   121500         1217.2052      304.0551       10498.157      3042.5515      13540.708      65200.452      87120        
    121600   121600         1218.2088      299.112        10503.087      2993.088       13496.175      65178.763      87120        
    121700   121700         1219.1958      299.93662      10504.948      3001.3396      13506.288      65229.695      87120        
    121800   121800         1220.2055      303.3659       10500.993      3035.6549      13536.647      65183.849      87120        
    121900   121900         1221.2052      307.54465      10507.683      3077.47        13585.153      65224.602      87120        
    122000   122000         1222.196       304.16703      10496.748      3043.6716      13540.42       65147.105      87120        
    122100   122100         1223.1736      294.88075      10491.456      2950.7476      13442.203      65089.515      87120        
    122200   122200         1224.1383      290.09773      10467.402      2902.886       13370.288      65025.08       87120        
    122300   122300         1225.1044      296.90888      10494.471      2971.0423      13465.513      65084.225      87120        
    122400   122400         1226.088       298.49582      10577.219      2986.9221      13564.141      65365.583      87120        
    122500   122500         1227.0624      302.57624      10558.434      3027.7532      13586.187      65328.402      87120        
    122600   122600         1228.0665      298.69916      10516.289      2988.9569      13505.246      65173.726      87120        
    122700   122700         1229.0501      296.6562       10522.238      2968.5138      13490.752      65211.266      87120        
    122800   122800         1230.0253      299.93984      10539.974      3001.3718      13541.345      65376.257      87120        
    122900   122900         1231.0634      297.6547       10562.702      2978.5054      13541.208      65370.821      87120        
    123000   123000         1232.0872      307.83855      10522.213      3080.4109      13602.624      65249.305      87120        
    123100   123100         1233.0869      312.70257      10567.338      3129.083       13696.421      65456.395      87120        
    123200   123200         1234.0844      304.77229      10538.946      3049.7281      13588.674      65310.298      87120        
    123300   123300         1235.0775      300.55959      10502.276      3007.5733      13509.849      65174.204      87120        
    123400   123400         1236.0732      292.04317      10562.355      2922.3532      13484.708      65369.474      87120        
    123500   123500         1237.0764      303.45838      10522.531      3036.5804      13559.112      65230.188      87120        
    123600   123600         1238.0858      308.78746      10504.49       3089.9063      13594.396      65170.653      87120        
    123700   123700         1239.0921      304.65312      10454.719      3048.5356      13503.254      65026.063      87120        
    123800   123800         1240.093       297.35357      10463.06       2975.4921      13438.552      64952.995      87120        
    123900   123900         1241.0972      299.68997      10458.676      2998.8715      13457.548      64925.589      87120        
    124000   124000         1242.0898      299.18389      10531.447      2993.8073      13525.254      65195.736      87120        
    124100   124100         1243.085       303.49624      10484.491      3036.9592      13521.451      65005.34       87120        
    124200   124200         1244.064       300.71842      10436.3        3009.1627      13445.462      64903.803      87120        
    124300   124300         1245.0349      296.81887      10466.684      2970.1416      13436.826      65002.677      87120        
    124400   124400         1246.032       298.56012      10485.081      2987.5655      13472.646      65064.645      87120        
    124500   124500         1247.0308      299.71078      10529.392      2999.0797      13528.472      65252.225      87120        
    124600   124600         1248.037       306.94879      10512.86       3071.5074      13584.368      65205.253      87120        
    124700   124700         1249.0346      294.27363      10595.896      2944.6724      13540.568      65494.106      87120        
    124800   124800         1250.0262      293.54412      10534.695      2937.3725      13472.068      65305.886      87120        
    124900   124900         1251.0304      295.03411      10543.386      2952.2823      13495.668      65330.524      87120        
    125000   125000         1252.0358      301.43504      10570.037      3016.3336      13586.371      65413.608      87120        
    125100   125100         1253.0221      301.98308      10587.076      3021.8177      13608.894      65557.792      87120        
    125200   125200         1254.0207      299.46698      10587.622      2996.6401      13584.262      65593.667      87120        
    125300   125300         1255.012       298.95023      10564.496      2991.4691      13555.965      65414.795      87120        
    125400   125400         1256.0336      298.24363      10592.941      2984.3985      13577.34       65568.118      87120        
    125500   125500         1257.0449      304.76591      10607.235      3049.6642      13656.899      65682.086      87120        
    125600   125600         1258.0642      307.89588      10572.021      3080.9845      13653.006      65453.818      87120        
    125700   125700         1259.0582      299.25599      10555.716      2994.5288      13550.245      65404.017      87120        
    125800   125800         1260.0609      299.31989      10524.086      2995.1683      13519.254      65259.004      87120        
    125900   125900         1261.0587      302.49074      10464.684      3026.8976      13491.581      65039.581      87120        
    126000   126000         1262.0606      303.73697      10461.827      3039.3681      13501.195      65016.538      87120        
    126100   126100         1263.0249      310.98751      10482.623      3111.9212      13594.544      65085.022      87120        
    126200   126200         1264.0269      301.19133      10510.555      3013.895       13524.449      65145.203      87120        
    126300   126300         1264.9981      299.57252      10442.778      2997.6962      13440.474      64912.112      87120        
    126400   126400         1265.9837      294.66976      10432.914      2948.6363      13381.551      64790.137      87120        
    126500   126500         1266.9646      300.72944      10432.223      3009.273       13441.496      64803.854      87120        
    126600   126600         1267.9322      303.32896      10455.315      3035.2853      13490.6        64855.033      87120        
    126700   126700         1268.9366      306.68057      10397.375      3068.8234      13466.198      64593.175      87120        
    126800   126800         1269.9219      298.6089       10462.475      2988.0537      13450.529      64907.12       87120        
    126900   126900         1270.9091      300.32302      10446.392      3005.2062      13451.599      64851.593      87120        
    127000   127000         1271.8902      301.50252      10476.893      3017.0089      13493.901      64968.238      87120        
    127100   127100         1272.8427      301.85041      10505.168      3020.4901      13525.658      65115.796      87120        
    127200   127200         1273.8247      302.91693      10474.011      3031.1623      13505.173      65014.813      87120        
    127300   127300         1274.8107      291.89622      10551          2920.8827      13471.883      65291.295      87120        
    127400   127400         1275.7933      303.26578      10498.405      3034.6531      13533.058      65119.099      87120        
    127500   127500         1276.7846      300.29695      10550.83       3004.9453      13555.776      65356.035      87120        
    127600   127600         1277.7844      292.50515      10554.061      2926.9759      13481.037      65366.854      87120        
    127700   127700         1278.7726      293.76283      10569.156      2939.561       13508.717      65444.74       87120        
    127800   127800         1279.7631      305.09151      10552.484      3052.9224      13605.407      65416.107      87120        
    127900   127900         1280.759       299.05432      10621.604      2992.5108      13614.115      65619.1        87120        
    128000   128000         1281.7386      302.21758      10591.836      3024.1642      13616          65500.52       87120        
    128100   128100         1282.7125      297.03425      10590.072      2972.2968      13562.369      65525.835      87120        
    128200   128200         1283.7086      295.34836      10529.117      2955.4268      13484.543      65249.165      87120        
    128300   128300         1284.7023      300.44639      10531.073      3006.4406      13537.514      65291.275      87120        
    128400   128400         1285.6822      307.39935      10577.452      3076.0159      13653.468      65545.014      87120        
    128500   128500         1286.6644      312.42691      10535.763      3126.3246      13662.087      65384.042      87120        
    128600   128600         1287.6631      298.74411      10586.799      2989.4066      13576.206      65421.506      87120        
    128700   128700         1288.6426      299.40484      10544.339      2996.0183      13540.357      65354.532      87120        
    128800   128800         1289.639       297.78568      10496.258      2979.8161      13476.074      65101.121      87120        
    128900   128900         1290.6382      295.95658      10510.961      2961.513       13472.474      65126.078      87120        
    129000   129000         1291.6562      306.10702      10514.446      3063.0842      13577.53       65218.127      87120        
    129100   129100         1292.6366      297.05375      10589.22       2972.4919      13561.712      65429.73       87120        
    129200   129200         1293.6034      299.52153      10523.389      2997.186       13520.575      65220.837      87120        
    129300   129300         1294.5932      297.85986      10523.327      2980.5584      13503.885      65225.203      87120        
    129400   129400         1295.5855      309.79163      10479.959      3099.9546      13579.913      65048.964      87120        
    129500   129500         1296.5796      312.8034       10446.139      3130.092       13576.231      64906.467      87120        
    129600   129600         1297.5709      297.93823      10474.668      2981.3425      13456.011      64996.48       87120        
    129700   129700         1298.5542      301.66878      10453.009      3018.6726      13471.682      64937.205      87120        
    129800   129800         1299.5347      299.96819      10494.964      3001.6555      13496.619      65130.807      87120        
    129900   129900         1300.5223      307.64531      10466.434      3078.4772      13544.912      64979.996      87120        
    130000   130000         1301.5232      303.64761      10502.637      3038.4739      13541.11       65063.388      87120        
    130100   130100         1302.5121      297.14861      10483.297      2973.4412      13456.738      65094.225      87120        
    130200   130200         1303.4966      296.33183      10499.372      2965.268       13464.64       65109.296      87120        
    130300   130300         1304.5025      300.00035      10517.748      3001.9773      13519.725      65115.762      87120        
    130400   130400         1305.4777      306.10456      10509.202      3063.0595      13572.262      65141.989      87120        
    130500   130500         1306.4697      303.97842      10516.806      3041.7842      13558.59       65155.933      87120        
    130600   130600         1307.4656      299.42952      10463.282      2996.2653      13459.547      65085.627      87120        
    130700   130700         1308.4578      297.03266      10501.403      2972.2809      13473.683      65216.739      87120        
    130800   130800         1309.4383      302.21011      10537.061      3024.0894      13561.15       65318.732      87120        
    130900   130900         1310.4334      299.0908       10603.42       2992.8758      13596.296      65586.482      87120        
    131000   131000         1311.4385      300.62662      10576.839      3008.2442      13585.083      65421.381      87120        
    131100   131100         1312.4334      295.46386      10543.116      2956.5826      13499.698      65301.303      87120        
    131200   131200         1313.4103      291.4178       10506.579      2916.0953      13422.675      65164.489      87120        
    131300   131300         1314.4256      299.65729      10521.598      2998.5445      13520.142      65231.114      87120        
    131400   131400         1315.4177      302.87685      10532.368      3030.7612      13563.129      65260.504      87120        
    131500   131500         1316.4195      298.80534      10533.771      2990.0193      13523.79       65263.79       87120        
    131600   131600         1317.4288      299.57174      10491.593      2997.6884      13489.281      65072.985      87120        
    131700   131700         1318.4313      291.94334      10564.483      2921.3542      13485.838      65363.508      87120        
    131800   131800         1319.4155      306.46997      10548.17       3066.7161      13614.886      65414.527      87120        
    131900   131900         1320.4219      308.60817      10539.702      3088.1121      13627.814      65360.986      87120        
    132000   132000         1321.4205      300.1185       10554.237      3003.1595      13557.397      65345.185      87120        
    132100   132100         1322.4258      295.45211      10563.499      2956.4649      13519.964      65408.818      87120        
    132200   132200         1323.429       305.4542       10505.598      3056.5517      13562.15       65157.402      87120        
    132300   132300         1324.4297      307.79109      10574.32       3079.9359      13654.256      65417.921      87120        
    132400   132400         1325.4283      309.47499      10561.195      3096.7861      13657.981      65452.666      87120        
    132500   132500         1326.4115      302.13258      10524.839      3023.3136      13548.153      65249.412      87120        
    132600   132600         1327.4239      295.33476      10596.36       2955.2907      13551.65       65512.956      87120        
    132700   132700         1328.4138      305.32028      10545.76       3055.2116      13600.971      65375.216      87120        
    132800   132800         1329.3978      301.94428      10530.646      3021.4294      13552.076      65258.377      87120        
    132900   132900         1330.4029      293.14867      10516.876      2933.4155      13450.292      65201.865      87120        
    133000   133000         1331.3914      297.52373      10517.496      2977.1948      13494.691      65180.632      87120        
    133100   133100         1332.3797      300.50857      10519.73       3007.0629      13526.793      65132.99       87120        
    133200   133200         1333.3547      299.5897       10498.411      2997.8681      13496.279      65121.015      87120        
    133300   133300         1334.3399      301.41581      10449.617      3016.1412      13465.759      64938.318      87120        
    133400   133400         1335.324       294.78369      10482.774      2949.7764      13432.55       64961.915      87120        
    133500   133500         1336.3066      298.75304      10476.672      2989.496       13466.168      64982.829      87120        
    133600   133600         1337.2724      308.06688      10467.231      3082.6957      13549.926      64970.481      87120        
    133700   133700         1338.2554      301.39195      10482.887      3015.9024      13498.789      64937.802      87120        
    133800   133800         1339.2322      301.73747      10417.976      3019.3599      13437.336      64800.728      87120        
    133900   133900         1340.2316      304.21922      10400.192      3044.1938      13444.386      64762.961      87120        
    134000   134000         1341.2332      299.65457      10454.493      2998.5173      13453.01       64905.873      87120        
    134100   134100         1342.2143      306.72106      10504.885      3069.2286      13574.114      65118.153      87120        
    134200   134200         1343.2006      308.52866      10495.929      3087.3165      13583.246      65113.739      87120        
    134300   134300         1344.1692      297.01973      10534.889      2972.1515      13507.04       65206.855      87120        
    134400   134400         1345.1642      303.00085      10456.964      3032.002       13488.966      64987.728      87120        
    134500   134500         1346.1644      301.23155      10502.022      3014.2974      13516.32       65227.086      87120        
    134600   134600         1347.1537      300.6183       10542.309      3008.1609      13550.469      65356.781      87120        
    134700   134700         1348.1427      307.41552      10544.341      3076.1778      13620.519      65370.971      87120        
    134800   134800         1349.1541      311.06767      10510.267      3112.7233      13622.991      65210.095      87120        
    134900   134900         1350.1452      300.21492      10519.854      3004.1244      13523.979      65231.007      87120        
    135000   135000         1351.1475      295.59046      10542.354      2957.8494      13500.203      65301.507      87120        
    135100   135100         1352.119       295.16477      10578.615      2953.5897      13532.205      65480.821      87120        
    135200   135200         1353.1063      302.1112       10583.859      3023.0997      13606.959      65523.967      87120        
    135300   135300         1354.0871      310.7371       10555.935      3109.4155      13665.351      65453.476      87120        
    135400   135400         1355.1078      300.90856      10583.513      3011.0654      13594.579      65455.632      87120        
    135500   135500         1356.1049      296.23407      10583.982      2964.2898      13548.272      65470.876      87120        
    135600   135600         1357.1191      295.28468      10616.659      2954.7896      13571.448      65583.919      87120        
    135700   135700         1358.1166      303.91648      10596.598      3041.1643      13637.763      65504.086      87120        
    135800   135800         1359.1091      299.17269      10627.678      2993.6953      13621.374      65544.101      87120        
    135900   135900         1360.0967      300.82909      10575.537      3010.2701      13585.807      65447.747      87120        
    136000   136000         1361.0925      298.52037      10526.014      2987.1678      13513.182      65247.663      87120        
    136100   136100         1362.0637      300.63097      10498.783      3008.2876      13507.071      65143.898      87120        
    136200   136200         1363.0494      304.48784      10573.273      3046.8817      13620.155      65403.624      87120        
    136300   136300         1364.0183      306.47334      10521.061      3066.7498      13587.811      65154.483      87120        
    136400   136400         1364.9969      301.23912      10460.254      3014.3732      13474.627      64946.114      87120        
    136500   136500         1365.9766      298.33667      10456.455      2985.3295      13441.784      64924.226      87120        
    136600   136600         1366.9497      301.53358      10463.463      3017.3197      13480.783      64963.598      87120        
    136700   136700         1367.9431      301.87232      10498.278      3020.7093      13518.988      65088.705      87120        
    136800   136800         1368.9184      300.31502      10538.013      3005.126       13543.139      65235.711      87120        
    136900   136900         1369.9144      300.1915       10498.618      3003.8901      13502.508      65100.954      87120        
    137000   137000         1370.8925      299.21675      10453.251      2994.1361      13447.387      64961.008      87120        
    137100   137100         1371.8711      300.87735      10501.027      3010.7531      13511.781      65123.865      87120        
    137200   137200         1372.8621      310.34051      10519.865      3105.4469      13625.312      65264.137      87120        
    137300   137300         1373.8625      304.98545      10538.973      3051.8611      13590.834      65360.722      87120        
    137400   137400         1374.8649      297.30934      10552.947      2975.0495      13527.996      65354.857      87120        
    137500   137500         1375.868       300.37581      10570.771      3005.7344      13576.505      65455.89       87120        
    137600   137600         1376.8879      301.17367      10606.414      3013.7182      13620.132      65595.274      87120        
    137700   137700         1377.8967      303.06275      10611.218      3032.6215      13643.839      65631.462      87120        
    137800   137800         1378.9122      301.00545      10560.727      3012.035       13572.762      65425.725      87120        
    137900   137900         1379.9138      293.91762      10535.35       2941.11        13476.46       65290.866      87120        
    138000   138000         1380.9227      296.56376      10545.781      2967.5888      13513.37       65402.533      87120        
    138100   138100         1381.9279      296.32935      10623.203      2965.2431      13588.446      65628.373      87120        
    138200   138200         1382.9496      298.10793      10612.29       2983.0407      13595.331      65617.118      87120        
    138300   138300         1383.9815      300.40149      10562.712      3005.9913      13568.703      65419.479      87120        
    138400   138400         1384.9876      300.04413      10510.19       3002.4154      13512.606      65156.917      87120        
    138500   138500         1385.9907      290.58375      10537.807      2907.7494      13445.557      65268.786      87120        
    138600   138600         1386.9836      297.53989      10534.538      2977.3565      13511.895      65243.125      87120        
    138700   138700         1387.981       305.22746      10472.538      3054.2828      13526.821      64974.398      87120        
    138800   138800         1388.9789      300.25163      10465.003      3004.4917      13469.495      64976.95       87120        
    138900   138900         1389.9703      297.87076      10449.099      2980.6674      13429.766      64929.217      87120        
    139000   139000         1390.9684      303.59922      10429.589      3037.9897      13467.579      64790.662      87120        
    139100   139100         1391.9459      309.32273      10469.421      3095.2625      13564.683      65023.272      87120        
    139200   139200         1392.9306      299.07707      10500.574      2992.7384      13493.312      65034.768      87120        
    139300   139300         1393.9159      294.34712      10501.958      2945.4078      13447.365      65007.236      87120        
    139400   139400         1394.9017      303.81414      10472.719      3040.1403      13512.859      64958.706      87120        
    139500   139500         1395.8797      307.94887      10524.935      3081.5148      13606.45       65161.975      87120        
    139600   139600         1396.8821      305.29324      10473.024      3054.941       13527.965      64900.784      87120        
    139700   139700         1397.8665      297.84283      10499.641      2980.3879      13480.029      65097.304      87120        
    139800   139800         1398.8519      301.1744       10457.085      3013.7255      13470.81       64931.483      87120        
    139900   139900         1399.8461      298.5575       10476.433      2987.5393      13463.973      64992.085      87120        
    140000   140000         1400.8469      296.16048      10497.392      2963.5534      13460.945      65114.884      87120        
    140100   140100         1401.8451      293.67886      10534.163      2938.7208      13472.884      65259.11       87120        
    140200   140200         1402.8401      298.2341       10598.422      2984.3032      13582.725      65449.176      87120        
    140300   140300         1403.8328      306.30064      10570.548      3065.0217      13635.57       65444.823      87120        
    140400   140400         1404.8266      299.06167      10583.96       2992.5844      13576.545      65438.994      87120        
    140500   140500         1405.8125      298.79473      10537.537      2989.9132      13527.45       65240.768      87120        
    140600   140600         1406.808       292.44908      10595.608      2926.4149      13522.023      65458.337      87120        
    140700   140700         1407.7899      297.65684      10649.388      2978.5267      13627.914      65675.087      87120        
    140800   140800         1408.7875      309.91053      10545.536      3101.1443      13646.68       65327.43       87120        
    140900   140900         1409.7886      298.55309      10571.968      2987.4952      13559.464      65407.129      87120        
    141000   141000         1410.7917      297.62036      10502.54       2978.1617      13480.702      65081.752      87120        
    141100   141100         1411.7667      294.89572      10484.863      2950.8974      13435.761      65012.219      87120        
    141200   141200         1412.745       299.35389      10478.704      2995.5085      13474.212      65023.164      87120        
    141300   141300         1413.7412      301.12215      10548.589      3013.2026      13561.791      65264.056      87120        
    141400   141400         1414.7238      304.28168      10495.438      3044.8188      13540.256      65100.284      87120        
    141500   141500         1415.7001      296.03997      10528.716      2962.3475      13491.063      65236.47       87120        
    141600   141600         1416.7007      301.05457      10446.185      3012.5264      13458.711      64832.671      87120        
    141700   141700         1417.6986      298.50306      10451.211      2986.9945      13438.205      64858.672      87120        
    141800   141800         1418.6701      303.28219      10409.348      3034.8173      13444.166      64739.787      87120        
    141900   141900         1419.6701      296.03775      10474.917      2962.3252      13437.242      64958.561      87120        
    142000   142000         1420.6564      294.52168      10511.183      2947.1545      13458.338      65111.305      87120        
    142100   142100         1421.6295      306.27246      10482.726      3064.7396      13547.466      65022.117      87120        
    142200   142200         1422.5996      307.13391      10436.341      3073.3598      13509.701      64820.51       87120        
    142300   142300         1423.5891      294.53532      10498.487      2947.291       13445.778      65047.964      87120        
    142400   142400         1424.5769      295.78249      10498.187      2959.7709      13457.958      65061.896      87120        
    142500   142500         1425.5634      299.78679      10491.37       2999.8403      13491.211      65042.157      87120        
    142600   142600         1426.5557      302.76847      10513.398      3029.6767      13543.075      65179.638      87120        
    142700   142700         1427.5673      301.65914      10525.008      3018.5762      13543.584      65243.276      87120        
    142800   142800         1428.5865      293.1004       10570.884      2932.9324      13503.816      65410.122      87120        
    142900   142900         1429.6133      298.96075      10527.971      2991.5745      13519.546      65280.822      87120        
    143000   143000         1430.6476      304.84922      10501.535      3050.4979      13552.033      65250.772      87120        
    143100   143100         1431.6428      301.36702      10569.757      3015.653       13585.41       65400.97       87120        
    143200   143200         1432.658       300.56521      10611.854      3007.6296      13619.484      65595.114      87120        
    143300   143300         1433.6657      303.34798      10550.91       3035.4757      13586.386      65401.776      87120        
    143400   143400         1434.6604      293.55219      10562.549      2937.4533      13500.002      65357.351      87120        
    143500   143500         1435.6682      297.75719      10535.219      2979.5309      13514.75       65361.482      87120        
    143600   143600         1436.6717      302.09078      10528.303      3022.8954      13551.199      65269.659      87120        
    143700   143700         1437.684       300.85855      10568.858      3010.5649      13579.422      65380.014      87120        
    143800   143800         1438.6787      297.15568      10542.84       2973.5119      13516.352      65305.102      87120        
    143900   143900         1439.7149      292.58988      10505.656      2927.8239      13433.48       65187.269      87120        
    144000   144000         1440.7017      298.40043      10483.472      2985.9676      13469.44       65017.081      87120        
    144100   144100         1441.6947      302.15352      10503.211      3023.5232      13526.735      65182.141      87120        
    144200   144200         1442.6781      304.27603      10463.574      3044.7622      13508.336      65003.077      87120        
    144300   144300         1443.6625      297.81363      10479.966      2980.0957      13460.062      65002.625      87120        
    144400   144400         1444.662       293.90417      10479.519      2940.9754      13420.494      65046.981      87120        
    144500   144500         1445.6511      301.92245      10494.544      3021.2109      13515.755      65104.026      87120        
    144600   144600         1446.6245      305.62035      10505.9        3058.2143      13564.114      65094.451      87120        
    144700   144700         1447.6121      297.13898      10533.339      2973.3448      13506.684      65232.84       87120        
    144800   144800         1448.5871      298.33247      10489.13       2985.2875      13474.418      65102.158      87120        
    144900   144900         1449.5848      295.32377      10512.376      2955.1807      13467.557      65086.63       87120        
    145000   145000         1450.5777      308.30024      10492.472      3085.0308      13577.503      65136.043      87120        
    145100   145100         1451.5582      313.56792      10443.192      3137.7422      13580.934      64966.273      87120        
    145200   145200         1452.5423      300.98053      10489.803      3011.7856      13501.588      65047.395      87120        
    145300   145300         1453.5291      299.12464      10492.424      2993.2145      13485.638      65096.012      87120        
    145400   145400         1454.5156      295.63636      10535.161      2958.3087      13493.47       65289.755      87120        
    145500   145500         1455.5059      298.02261      10511.412      2982.1869      13493.599      65186.513      87120        
    145600   145600         1456.5171      299.57206      10549.375      2997.6916      13547.067      65389.718      87120        
    145700   145700         1457.5239      306.01151      10563.49       3062.1284      13625.619      65405.113      87120        
    145800   145800         1458.5322      301.06986      10610.472      3012.6794      13623.151      65523.638      87120        
    145900   145900         1459.5276      300.49054      10523.109      3006.8824      13529.992      65283.039      87120        
    146000   146000         1460.5267      297.07665      10502.136      2972.721       13474.857      65120.302      87120        
    146100   146100         1461.5221      298.64614      10508.217      2988.4263      13496.643      65150.745      87120        
    146200   146200         1462.5174      300.17255      10529.271      3003.7005      13532.971      65254.644      87120        
    146300   146300         1463.51        302.07019      10519.054      3022.6893      13541.744      65169.284      87120        
    146400   146400         1464.5063      296.86772      10498.043      2970.6304      13468.673      65077.933      87120        
    146500   146500         1465.4899      294.5399       10434.086      2947.3369      13381.423      64900.755      87120        
    146600   146600         1466.5095      298.24735      10444.638      2984.4358      13429.073      64904.79       87120        
    146700   146700         1467.5077      302.58891      10465.994      3027.88        13493.874      65011.516      87120        
    146800   146800         1468.5086      303.16339      10480.58       3033.6286      13514.209      65092.414      87120        
    146900   146900         1469.5156      303.30294      10454.264      3035.025       13489.289      64922.531      87120        
    147000   147000         1470.5209      294.2106       10476.952      2944.0417      13420.993      65106.501      87120        
    147100   147100         1471.5125      292.91923      10456.827      2931.1195      13387.947      65015.597      87120        
    147200   147200         1472.5112      294.36142      10545.956      2945.5509      13491.507      65255.693      87120        
    147300   147300         1473.5092      299.88052      10539.198      3000.7782      13539.977      65339.762      87120        
    147400   147400         1474.5385      296.69863      10596.613      2968.9384      13565.551      65530.834      87120        
    147500   147500         1475.5506      302.76987      10579.114      3029.6907      13608.804      65471.629      87120        
    147600   147600         1476.5621      303.05012      10576.183      3032.4951      13608.678      65511.264      87120        
    147700   147700         1477.5695      298.32658      10539.297      2985.2286      13524.525      65360.059      87120        
    147800   147800         1478.5795      294.08241      10533.138      2942.759       13475.897      65255.816      87120        
    147900   147900         1479.5774      298.35665      10549.29       2985.5295      13534.82       65374.983      87120        
    148000   148000         1480.5917      307.95132      10528.96       3081.5393      13610.499      65291.358      87120        
    148100   148100         1481.5855      299.37358      10550.85       2995.7055      13546.556      65323.691      87120        
    148200   148200         1482.6031      296.23358      10535.397      2964.2848      13499.682      65314.158      87120        
    148300   148300         1483.6006      299.50904      10511.982      2997.061       13509.043      65225.807      87120        
    148400   148400         1484.6129      296.95318      10594.43       2971.4855      13565.916      65469.738      87120        
    148500   148500         1485.601       309.92445      10536.509      3101.2836      13637.793      65364.711      87120        
    148600   148600         1486.6036      304.55157      10525.387      3047.5194      13572.906      65249.379      87120        
    148700   148700         1487.6007      296.70525      10511.519      2969.0046      13480.523      65167.627      87120        
    148800   148800         1488.6014      298.81341      10470.467      2990.1001      13460.567      65041.782      87120        
    148900   148900         1489.6091      305.79504      10431.693      3059.9623      13491.655      64875.889      87120        
    149000   149000         1490.595       302.937        10484.393      3031.3631      13515.757      65036.964      87120        
    149100   149100         1491.5786      304.83909      10519.148      3050.3965      13569.545      65237.403      87120        
    149200   149200         1492.5566      303.87419      10529.331      3040.7412      13570.073      65263.969      87120        
    149300   149300         1493.5495      295.22032      10524.285      2954.1455      13478.431      65171.518      87120        
    149400   149400         1494.5458      299.94729      10449.967      3001.4463      13451.413      64997.844      87120        
    149500   149500         1495.5247      302.58598      10472.61       3027.8506      13500.461      65093.162      87120        
    149600   149600         1496.514       299.61565      10557.433      2998.1278      13555.561      65344.289      87120        
    149700   149700         1497.521       301.2767       10551.228      3014.7492      13565.978      65389.362      87120        
    149800   149800         1498.5124      295.20892      10558.096      2954.0315      13512.127      65273.004      87120        
    149900   149900         1499.5175      299.63683      10518.055      2998.3397      13516.395      65180.818      87120        
    150000   150000         1500.5172      305.96232      10506.272      3061.6363      13567.909      65207.488      87120        
    150100   150100         1501.5056      303.88669      10546.327      3040.8663      13587.193      65289.951      87120        
    150200   150200         1502.5107      293.36979      10559.002      2935.6281      13494.63       65346.583      87120        
    150300   150300         1503.5         297.47433      10515.786      2976.7005      13492.486      65192.388      87120        
    150400   150400         1504.5157      302.27414      10545.792      3024.7301      13570.522      65237.392      87120        
    150500   150500         1505.5392      309.19745      10580.051      3094.0088      13674.06       65549.972      87120        
    150600   150600         1506.5458      304.41044      10563.725      3046.1072      13609.832      65456.003      87120        
    150700   150700         1507.5763      297.69993      10536.108      2978.958       13515.066      65265.793      87120        
    150800   150800         1508.5787      295.9696       10554.64       2961.6433      13516.284      65353.511      87120        
    150900   150900         1509.5992      306.26728      10535.98       3064.6878      13600.668      65337.928      87120        
    151000   151000         1510.6182      299.33717      10610.935      2995.3411      13606.276      65512.446      87120        
    151100   151100         1511.6224      301.36064      10553.994      3015.5892      13569.583      65379.515      87120        
    151200   151200         1512.6327      300.64121      10562.641      3008.3901      13571.031      65454.224      87120        
    151300   151300         1513.6359      298.11145      10538.109      2983.0759      13521.185      65279.668      87120        
    151400   151400         1514.6583      292.68016      10561.206      2928.7273      13489.933      65432.856      87120        
    151500   151500         1515.6767      302.13024      10591.041      3023.2902      13614.331      65555.613      87120        
    151600   151600         1516.6958      306.77139      10535.439      3069.7323      13605.172      65240.821      87120        
    151700   151700         1517.6885      297.55206      10528.108      2977.4783      13505.586      65242.819      87120        
    151800   151800         1518.6974      296.8018       10485.342      2969.9708      13455.313      65097.095      87120        
    151900   151900         1519.7024      299.89106      10503.427      3000.8837      13504.311      65085.234      87120        
    152000   152000         1520.709       300.94036      10538.078      3011.3836      13549.461      65304.932      87120        
    152100   152100         1521.6957      299.29381      10531.516      2994.9072      13526.424      65245.033      87120        
    152200   152200         1522.6785      295.81668      10522.797      2960.1131      13482.91       65126.568      87120        
    152300   152300         1523.7091      300.88966      10479.448      3010.8763      13490.324      65090.981      87120        
    152400   152400         1524.7122      306.97467      10527.14       3071.7664      13598.907      65227.448      87120        
    152500   152500         1525.7157      303.82496      10517.355      3040.2486      13557.604      65137.718      87120        
    152600   152600         1526.7212      301.69605      10482.057      3018.9455      13501.002      65094.476      87120        
    152700   152700         1527.7312      298.10466      10480.275      2983.0079      13463.283      65044.805      87120        
    152800   152800         1528.7214      302.28535      10442.184      3024.8423      13467.026      64858.096      87120        
    152900   152900         1529.7113      307.17626      10518.296      3073.7836      13592.079      65223.572      87120        
    153000   153000         1530.7169      306.5917       10548.148      3067.9342      13616.083      65343.697      87120        
    153100   153100         1531.7094      297.61484      10559.06       2978.1065      13537.167      65314.441      87120        
    153200   153200         1532.6993      289.49223      10623.074      2896.8269      13519.901      65579.256      87120        
    153300   153300         1533.7082      303.24208      10551.897      3034.4159      13586.313      65319.685      87120        
    153400   153400         1534.7169      303.37623      10563.334      3035.7583      13599.092      65280.113      87120        
    153500   153500         1535.7315      299.66745      10580.88       2998.6461      13579.526      65479.412      87120        
    153600   153600         1536.7453      299.00512      10570.286      2992.0185      13562.304      65393.923      87120        
    153700   153700         1537.7594      303.12878      10515.169      3033.2822      13548.451      65201.938      87120        
    153800   153800         1538.7826      297.90476      10555.439      2981.0076      13536.447      65358.45       87120        
    153900   153900         1539.8067      297.24862      10607.023      2974.4419      13581.465      65517.508      87120        
    154000   154000         1540.8209      302.81208      10582.952      3030.1131      13613.065      65485.541      87120        
    154100   154100         1541.8112      297.81556      10580.84       2980.115       13560.955      65494.018      87120        
    154200   154200         1542.8055      296.90428      10517.384      2970.9963      13488.38       65208.521      87120        
    154300   154300         1543.7998      289.87375      10598.73       2900.6446      13499.375      65463.241      87120        
    154400   154400         1544.805       304.96165      10552.212      3051.6229      13603.835      65360.165      87120        
    154500   154500         1545.8058      303.78361      10554.347      3039.8348      13594.181      65365.097      87120        
    154600   154600         1546.8004      303.80275      10474.244      3040.0263      13514.27       65043.144      87120        
    154700   154700         1547.7807      299.45849      10474.25       2996.5551      13470.805      65087.724      87120        
    154800   154800         1548.7781      303.04918      10465.741      3032.4857      13498.227      65034.611      87120        
    154900   154900         1549.7819      301.85447      10530.907      3020.5307      13551.438      65172.611      87120        
    155000   155000         1550.7817      310.60783      10561.186      3108.1219      13669.308      65375.414      87120        
    155100   155100         1551.7597      300.278        10600.314      3004.7556      13605.07       65417.253      87120        
    155200   155200         1552.7373      303.24596      10512.959      3034.4548      13547.414      65155.087      87120        
    155300   155300         1553.7354      300.21983      10506.008      3004.1735      13510.182      65180.807      87120        
    155400   155400         1554.7326      297.25772      10506.345      2974.533       13480.878      65068.547      87120        
    155500   155500         1555.7218      296.7799       10514.924      2969.7516      13484.676      65172.639      87120        
    155600   155600         1556.7003      298.63713      10602.789      2988.3361      13591.125      65542.164      87120        
    155700   155700         1557.6982      308.65437      10552.614      3088.5744      13641.189      65311.271      87120        
    155800   155800         1558.6981      302.42834      10512.483      3026.2731      13538.756      65160.622      87120        
    155900   155900         1559.6815      293.9442       10549.168      2941.376       13490.544      65289.07       87120        
    156000   156000         1560.6772      301.70916      10511.064      3019.0767      13530.14       65102.142      87120        
    156100   156100         1561.6355      297.9824       10529.102      2981.7845      13510.887      65213.801      87120        
    156200   156200         1562.616       293.42535      10504.177      2936.184       13440.361      65094.335      87120        
    156300   156300         1563.5878      292.48598      10517.948      2926.7842      13444.732      65114.662      87120        
    156400   156400         1564.5824      300.11011      10583.621      3003.0756      13586.696      65485.126      87120        
    156500   156500         1565.5809      302.00773      10566.107      3022.0643      13588.171      65359.459      87120        
    156600   156600         1566.5843      295.98767      10589.123      2961.8241      13550.948      65411.452      87120        
    156700   156700         1567.5826      297.81798      10569.857      2980.1393      13549.996      65403.328      87120        
    156800   156800         1568.5819      299.37027      10556.142      2995.6723      13551.815      65316.447      87120        
    156900   156900         1569.588       293.79591      10566.432      2939.8921      13506.324      65302.835      87120        
    157000   157000         1570.5803      295.92669      10536.366      2961.2139      13497.58       65225.198      87120        
    157100   157100         1571.5589      301.95261      10583.818      3021.5128      13605.331      65424.066      87120        
    157200   157200         1572.5465      308.74633      10519.429      3089.4946      13608.924      65205.481      87120        
    157300   157300         1573.561       292.68665      10596.358      2928.7922      13525.15       65411.444      87120        
    157400   157400         1574.5683      301.10618      10505.288      3013.0429      13518.331      65148.367      87120        
    157500   157500         1575.5602      301.0758       10526.947      3012.7388      13539.686      65291.453      87120        
    157600   157600         1576.5651      301.82678      10537.998      3020.2536      13558.252      65277.409      87120        
    157700   157700         1577.5667      304.82503      10493.58       3050.2559      13543.836      65066.858      87120        
    157800   157800         1578.5473      297.31525      10491.003      2975.1087      13466.112      65110.628      87120        
    157900   157900         1579.5433      290.41904      10537.896      2906.1012      13443.997      65267.329      87120        
    158000   158000         1580.5223      299.23323      10522.7        2994.3011      13517.002      65188.013      87120        
    158100   158100         1581.5004      303.18284      10509.876      3033.8231      13543.699      65126.462      87120        
    158200   158200         1582.4996      299.93073      10542.981      3001.2806      13544.261      65325.787      87120        
    158300   158300         1583.4999      304.25766      10501.22       3044.5784      13545.799      65148.988      87120        
    158400   158400         1584.4985      293.71537      10498.559      2939.0862      13437.645      65095.976      87120        
    158500   158500         1585.4982      293.22248      10487.807      2934.154       13421.961      65020.247      87120        
    158600   158600         1586.5054      295.43026      10546.507      2956.2463      13502.754      65238.616      87120        
    158700   158700         1587.4957      299.2717       10564.495      2994.686       13559.181      65382.067      87120        
    158800   158800         1588.5125      295.64839      10613.617      2958.429       13572.047      65536.336      87120        
    158900   158900         1589.5159      301.45823      10580.493      3016.5657      13597.059      65405.553      87120        
    159000   159000         1590.5239      302.3554       10565.848      3025.5433      13591.391      65335.872      87120        
    159100   159100         1591.5031      296.54328      10572.839      2967.3838      13540.223      65418.987      87120        
    159200   159200         1592.4953      296.58394      10566.35       2967.7908      13534.14       65361.986      87120        
    159300   159300         1593.4938      301.96967      10592.293      3021.6834      13613.977      65458.82       87120        
    159400   159400         1594.508       306.10789      10588.23       3063.0929      13651.323      65529.803      87120        
    159500   159500         1595.5103      297.85431      10586.367      2980.5028      13566.869      65512.028      87120        
    159600   159600         1596.5049      294.3685       10547.957      2945.6217      13493.579      65303.681      87120        
    159700   159700         1597.491       300.44495      10489.314      3006.4262      13495.74       65131.674      87120        
    159800   159800         1598.4907      303.38246      10468.793      3035.8207      13504.613      65075.606      87120        
    159900   159900         1599.4692      299.73332      10508.662      2999.3053      13507.967      65057.45       87120        
    160000   160000         1600.4625      305.48392      10504.497      3056.8491      13561.346      65197.633      87120        
    160100   160100         1601.4313      304.12686      10518.088      3043.2696      13561.358      65233.449      87120        
    160200   160200         1602.4238      300.12204      10458.393      3003.195       13461.588      64880.162      87120        
    160300   160300         1603.4039      295.9658       10461.667      2961.6053      13423.272      64976.402      87120        
    160400   160400         1604.3919      299.86253      10491.502      3000.5982      13492.101      65041.297      87120        
    160500   160500         1605.3896      303.31827      10491.309      3035.1783      13526.487      65047.747      87120        
    160600   160600         1606.3808      302.38224      10480.175      3025.8119      13505.987      65071.407      87120        
    160700   160700         1607.374       303.12719      10438.701      3033.2663      13471.967      64906.484      87120        
    160800   160800         1608.3593      293.9174       10466.814      2941.1078      13407.921      64991.501      87120        
    160900   160900         1609.3372      298.0714       10456.448      2982.6752      13439.123      64979.182      87120        
    161000   161000         1610.3506      302.04871      10487.65       3022.4744      13510.124      65146.86       87120        
    161100   161100         1611.3366      301.66803      10502.464      3018.6651      13521.129      65114.095      87120        
    161200   161200         1612.3368      301.5845       10469.933      3017.8292      13487.762      65103.113      87120        
    161300   161300         1613.3281      293.7174       10501.061      2939.1065      13440.168      65126.593      87120        
    161400   161400         1614.321       298.98467      10576.323      2991.8138      13568.137      65409.649      87120        
    161500   161500         1615.3184      305.51558      10604.519      3057.1659      13661.685      65636.994      87120        
    161600   161600         1616.3181      304.8893       10587.693      3050.899       13638.592      65542.915      87120        
    161700   161700         1617.3174      301.02292      10541.863      3012.2097      13554.073      65315.656      87120        
    161800   161800         1618.3017      300.37789      10568.323      3005.7552      13574.078      65523.062      87120        
    161900   161900         1619.3042      301.88889      10603.317      3020.8751      13624.192      65595.843      87120        
    162000   162000         1620.3161      305.15336      10560.353      3053.5413      13613.894      65384.026      87120        
    162100   162100         1621.3045      293.38833      10566.327      2935.8136      13502.141      65439.427      87120        
    162200   162200         1622.2994      297.12341      10534.801      2973.189       13507.99       65335.768      87120        
    162300   162300         1623.2825      300.65034      10574.612      3008.4815      13583.094      65455.664      87120        
    162400   162400         1624.2776      303.96851      10564.131      3041.685       13605.816      65405.083      87120        
    162500   162500         1625.2681      301.55951      10566.124      3017.5792      13583.703      65412.088      87120        
    162600   162600         1626.2656      298.0163       10507.668      2982.1237      13489.791      65217.452      87120        
    162700   162700         1627.2652      294.69699      10504.753      2948.9088      13453.662      65206.413      87120        
    162800   162800         1628.2482      301.07401      10489.004      3012.721       13501.725      65116.159      87120        
    162900   162900         1629.2383      302.40791      10480.947      3026.0688      13507.015      65048.668      87120        
    163000   163000         1630.2108      298.77055      10518.431      2989.6712      13508.102      65165.002      87120        
    163100   163100         1631.1968      299.25977      10518.416      2994.5666      13512.983      65169.675      87120        
    163200   163200         1632.1854      302.95821      10510.145      3031.5753      13541.721      65135.991      87120        
    163300   163300         1633.1606      301.04348      10517.6        3012.4154      13530.016      65102.32       87120        
    163400   163400         1634.1515      297.72102      10463.664      2979.169       13442.833      64992.765      87120        
    163500   163500         1635.1377      295.64616      10471.519      2958.4068      13429.926      65016.999      87120        
    163600   163600         1636.1191      303.39743      10436.419      3035.9704      13472.389      64838.074      87120        
    163700   163700         1637.1035      298.15753      10514.753      2983.537       13498.29       65112.474      87120        
    163800   163800         1638.0858      303.35622      10476.64       3035.5581      13512.198      64993.151      87120        
    163900   163900         1639.0752      300.06543      10523.515      3002.6285      13526.144      65211.736      87120        
    164000   164000         1640.0648      301.28874      10533.162      3014.8696      13548.032      65243.61       87120        
    164100   164100         1641.0528      294.09864      10535.235      2942.9214      13478.156      65220.477      87120        
    164200   164200         1642.033       288.26399      10567.128      2884.5365      13451.665      65348.524      87120        
    164300   164300         1643.0526      298.36153      10553.769      2985.5784      13539.348      65381.371      87120        
    164400   164400         1644.0517      302.68346      10569.828      3028.8261      13598.655      65440.686      87120        
    164500   164500         1645.0457      297.81848      10593.629      2980.1443      13573.773      65501.272      87120        
    164600   164600         1646.0438      298.59201      10538.377      2987.8846      13526.262      65285.869      87120        
    164700   164700         1647.0336      296.99252      10504.013      2971.8793      13475.892      65165.285      87120        
    164800   164800         1648.0142      303.08264      10492.757      3032.8205      13525.578      65183.419      87120        
    164900   164900         1649.0149      302.84337      10592.54       3030.4262      13622.966      65506.339      87120        
    165000   165000         1650.013       303.82959      10571.465      3040.2949      13611.76       65476.413      87120        
    165100   165100         1650.9806      295.77047      10543.766      2959.6507      13503.417      65258.889      87120        
    165200   165200         1651.9496      297.8594       10509.317      2980.5537      13489.87       65214.673      87120        
    165300   165300         1652.9314      299.50054      10496.887      2996.9759      13493.863      65130.433      87120        
    165400   165400         1653.9216      301.75727      10458.449      3019.5581      13478.007      64908.518      87120        
    165500   165500         1654.8944      301.5578       10447.489      3017.562       13465.051      64893.788      87120        
    165600   165600         1655.8916      298.01837      10497.852      2982.1445      13479.997      65065.082      87120        
    165700   165700         1656.8898      300.6325       10487.923      3008.3029      13496.226      65048.549      87120        
    165800   165800         1657.9018      296.33828      10517.549      2965.3325      13482.882      65198.47       87120        
    165900   165900         1658.9058      303.23873      10467.492      3034.3824      13501.875      64992.825      87120        
    166000   166000         1659.9044      294.48601      10563.447      2946.7976      13510.245      65342.288      87120        
    166100   166100         1660.8934      302.74837      10509.642      3029.4756      13539.118      65163.127      87120        
    166200   166200         1661.8743      297.11107      10594.517      2973.0655      13567.582      65474.113      87120        
    166300   166300         1662.8585      295.05955      10609.254      2952.5368      13561.791      65456.903      87120        
    166400   166400         1663.8644      302.74958      10539.288      3029.4877      13568.775      65227.851      87120        
    166500   166500         1664.8624      298.48209      10523.757      2986.7847      13510.541      65113.297      87120        
    166600   166600         1665.859       300.99858      10440.675      3011.9661      13452.642      64864.439      87120        
    166700   166700         1666.8599      295.85483      10482.701      2960.4948      13443.196      65058.95       87120        
    166800   166800         1667.8765      301.6753       10510.521      3018.7378      13529.258      65111.057      87120        
    166900   166900         1668.8895      305.65661      10498.377      3058.5771      13556.954      65123.779      87120        
    167000   167000         1669.8865      293.2701       10588.991      2934.6305      13523.622      65388.606      87120        
    167100   167100         1670.8841      300.00829      10526.492      3002.0567      13528.548      65191.796      87120        
    167200   167200         1671.8753      298.52733      10522.43       2987.2374      13509.668      65171.136      87120        
    167300   167300         1672.8674      299.58407      10455.087      2997.8118      13452.899      65012.231      87120        
    167400   167400         1673.8644      293.92968      10470.243      2941.2307      13411.474      64997.459      87120        
    167500   167500         1674.8682      300.1564       10521.304      3003.5388      13524.843      65229.438      87120        
    167600   167600         1675.8803      297.92553      10607.747      2981.2155      13588.962      65550.573      87120        
    167700   167700         1676.8904      298.54538      10567.769      2987.418       13555.187      65316.758      87120        
    167800   167800         1677.9098      293.37529      10562.427      2935.6831      13498.11       65368.321      87120        
    167900   167900         1678.9241      299.88212      10531.261      3000.7942      13532.055      65263.409      87120        
    168000   168000         1679.9283      309.80969      10523.769      3100.1353      13623.904      65236.237      87120        
    168100   168100         1680.935       301.0063       10538.869      3012.0434      13550.913      65242.916      87120        
    168200   168200         1681.9617      298.13418      10535.58       2983.3033      13518.883      65314.631      87120        
    168300   168300         1682.9537      300.11618      10550.082      3003.1364      13553.218      65333.46       87120        
    168400   168400         1683.9638      300.76722      10596.147      3009.651       13605.798      65550.349      87120        
    168500   168500         1684.958       296.46411      10615.239      2966.5916      13581.831      65580.648      87120        
    168600   168600         1685.9567      293.03659      10567.375      2932.2939      13499.669      65402.909      87120        
    168700   168700         1686.9599      294.03544      10533.269      2942.289       13475.558      65278.528      87120        
    168800   168800         1687.9622      299.39144      10593.11       2995.8842      13588.994      65526.05       87120        
    168900   168900         1688.9673      301.60239      10616.541      3018.0082      13634.55       65630.027      87120        
    169000   169000         1689.9584      305.17553      10551.945      3053.7631      13605.708      65373.067      87120        
    169100   169100         1690.9497      302.07248      10507.237      3022.7122      13529.949      65272.39       87120        
    169200   169200         1691.9309      297.94722      10517.225      2981.4325      13498.658      65222.493      87120        
    169300   169300         1692.9243      309.09878      10520.274      3093.0215      13613.295      65199.323      87120        
    169400   169400         1693.9381      307.80971      10557.145      3080.1223      13637.268      65386.986      87120        
    169500   169500         1694.9531      303.93089      10544.116      3041.3086      13585.425      65382.719      87120        
    169600   169600         1695.9524      304.38819      10497.78       3045.8846      13543.665      65154.438      87120        
    169700   169700         1696.9521      296.87612      10516.97       2970.7144      13487.685      65229.607      87120        
    169800   169800         1697.9397      297.25845      10528.823      2974.5403      13503.363      65220.834      87120        
    169900   169900         1698.9466      303.38905      10499.183      3035.8866      13535.07       65055.267      87120        
    170000   170000         1699.9369      300.02787      10457.128      3002.2527      13459.38       64976.706      87120        
    170100   170100         1700.9214      294.82439      10469.849      2950.1837      13420.032      65026.043      87120        
    170200   170200         1701.9247      299.39323      10495.066      2995.9021      13490.968      65023.074      87120        
    170300   170300         1702.9253      303.93178      10508.738      3041.3174      13550.056      65188.493      87120        
    170400   170400         1703.9215      297.12461      10589.55       2973.201       13562.751      65507.299      87120        
    170500   170500         1704.9329      301.39353      10500.381      3015.9183      13516.299      65064.525      87120        
    170600   170600         1705.9509      291.94524      10525.927      2921.3732      13447.3        65257.168      87120        
    170700   170700         1706.9377      298.09188      10513.118      2982.88        13495.998      65168.076      87120        
    170800   170800         1707.9466      306.03939      10506.184      3062.4075      13568.592      65141.312      87120        
    170900   170900         1708.9385      303.89985      10499.502      3040.9979      13540.5        65204.286      87120        
    171000   171000         1709.959       299.30343      10511.909      2995.0035      13506.913      65195.37       87120        
    171100   171100         1711.0109      298.51342      10555.953      2987.0982      13543.051      65332.9        87120        
    171200   171200         1712.1081      296.339        10635.837      2965.3397      13601.176      65731.994      87120        
    171300   171300         1713.2786      306.37875      10542.476      3065.8033      13608.28       65362.534      87120        
    171400   171400         1714.4169      300.68799      10542.152      3008.8582      13551.011      65323.019      87120        
    171500   171500         1715.5546      289.17183      10524.689      2893.6209      13418.31       65261.73       87120        
    171600   171600         1716.7388      288.96537      10554.728      2891.5549      13446.282      65275.81       87120        
    171700   171700         1717.8351      298.9107       10530.995      2991.0736      13522.068      65260.451      87120        
    171800   171800         1719.0289      307.17448      10485.01       3073.7658      13558.775      65144.263      87120        
    171900   171900         1720.2294      294.55481      10545.781      2947.4861      13493.267      65270.963      87120        
    172000   172000         1721.4604      306.90011      10421.227      3071.0203      13492.248      64883.014      87120        
    172100   172100         1722.6595      306.09489      10477.058      3062.9628      13540.021      65049.815      87120        
    172200   172200         1723.8352      306.95608      10512.923      3071.5803      13584.504      65103.51       87120        
    172300   172300         1724.9721      300.36135      10452.852      3005.5896      13458.442      64947.14       87120        
    172400   172400         1726.1201      297.60708      10423.82       2978.0289      13401.849      64804.999      87120        
    172500   172500         1727.3361      294.78208      10492.284      2949.7603      13442.045      65001.025      87120        
    172600   172600         1728.6569      304.23153      10473.186      3044.317       13517.503      64963.415      87120        
    172700   172700         1729.8617      302.99325      10476.637      3031.926       13508.563      65042.203      87120        
    172800   172800         1730.9994      291.63557      10459.617      2918.2745      13377.892      64881.879      87120        
    172900   172900         1732.236       292.58718      10495.755      2927.7968      13423.552      65069.002      87120        
    173000   173000         1733.3819      305.01679      10474.59       3052.1747      13526.765      65058.793      87120        
    173100   173100         1734.4772      305.10516      10518.304      3053.059       13571.363      65191.924      87120        
    173200   173200         1735.5671      301.17146      10529.141      3013.6961      13542.837      65324.476      87120        
    173300   173300         1736.7049      300.20441      10470.649      3004.0192      13474.668      65068.63       87120        
    173400   173400         1737.7478      292.27359      10552.841      2924.6588      13477.5        65357.466      87120        
    173500   173500         1738.7588      298.46896      10554.248      2986.6534      13540.902      65424.749      87120        
    173600   173600         1739.76        300.18752      10536.709      3003.8502      13540.559      65339.999      87120        
    173700   173700         1740.778       299.80668      10574.942      3000.0393      13574.982      65489.254      87120        
    173800   173800         1741.7901      305.44674      10616.17       3056.4771      13672.647      65621.147      87120        
    173900   173900         1742.8439      307.19321      10580.563      3073.9532      13654.516      65530.037      87120        
    174000   174000         1743.9174      301.33391      10586.896      3015.3217      13602.218      65600.68       87120        
    174100   174100         1744.9544      299.02854      10623.378      2992.2528      13615.631      65749.374      87120        
    174200   174200         1745.9858      302.74627      10627.997      3029.4546      13657.452      65708.61       87120        
    174300   174300         1747.0677      306.64913      10602.766      3068.5089      13671.274      65678.199      87120        
    174400   174400         1748.1797      294.14835      10620.405      2943.4188      13563.823      65627.653      87120        
    174500   174500         1749.2136      298.10337      10510.627      2982.995       13493.622      65214.637      87120        
    174600   174600         1750.2293      301.55911      10532.73       3017.5751      13550.305      65363.412      87120        
    174700   174700         1751.2592      297.51683      10585.622      2977.1258      13562.747      65433.132      87120        
    174800   174800         1752.2997      302.54964      10520.245      3027.487       13547.732      65191.62       87120        
    174900   174900         1753.3441      297.43769      10530.298      2976.3338      13506.632      65261.918      87120        
    175000   175000         1754.3524      303.29459      10511.988      3034.9414      13546.929      65176.616      87120        
    175100   175100         1755.3413      308.31639      10488.716      3085.1924      13573.909      65048.75       87120        
    175200   175200         1756.3517      296.315        10516.27       2965.0996      13481.37       65113.402      87120        
    175300   175300         1757.3388      294.34509      10465.901      2945.3875      13411.289      64935.299      87120        
    175400   175400         1758.3217      303.89378      10460.509      3040.9373      13501.446      64825.521      87120        
    175500   175500         1759.3169      304.26108      10479.328      3044.6126      13523.94       65002.956      87120        
    175600   175600         1760.2912      305.84664      10395.618      3060.4786      13456.097      64650.367      87120        
    175700   175700         1761.2571      295.38409      10437.639      2955.7844      13393.423      64680.432      87120        
    175800   175800         1762.2332      298.47972      10427.536      2986.761       13414.297      64770.365      87120        
    175900   175900         1763.1952      299.90121      10474.406      3000.9853      13475.391      64920.935      87120        
    176000   176000         1764.1875      305.3704       10569.564      3055.7131      13625.278      65340.143      87120        
    176100   176100         1765.1757      308.94465      10577.121      3091.4791      13668.6        65363.775      87120        
    176200   176200         1766.1713      301.74908      10556.79       3019.4761      13576.266      65217.581      87120        
    176300   176300         1767.1844      304.56046      10521.685      3047.6084      13569.293      65177.722      87120        
    176400   176400         1768.1746      298.9606       10562.174      2991.5729      13553.747      65344.856      87120        
    176500   176500         1769.168       298.05702      10557.515      2982.5312      13540.046      65354.01       87120        
    176600   176600         1770.1823      296.5496       10563.411      2967.4471      13530.858      65399.192      87120        
    176700   176700         1771.1926      293.22661      10587.727      2934.1954      13521.923      65485.274      87120        
    176800   176800         1772.185       296.21873      10607.897      2964.1362      13572.033      65582.936      87120        
    176900   176900         1773.205       305.84772      10609.417      3060.4895      13669.907      65671.543      87120        
    177000   177000         1774.2259      302.6205       10643.677      3028.196       13671.873      65763.846      87120        
    177100   177100         1775.2274      297.42385      10594.095      2976.1953      13570.29       65552.277      87120        
    177200   177200         1776.2213      299.35121      10564.534      2995.4817      13560.015      65476.93       87120        
    177300   177300         1777.2332      300.35984      10590.552      3005.5746      13596.127      65559.198      87120        
    177400   177400         1778.2634      299.47957      10617.555      2996.7661      13614.321      65693.216      87120        
    177500   177500         1779.2589      292.98409      10660.642      2931.7685      13592.41       65746.674      87120        
    177600   177600         1780.3007      303.1381       10578.263      3033.3755      13611.638      65540.805      87120        
    177700   177700         1781.3207      301.75425      10576.636      3019.5278      13596.164      65500.459      87120        
    177800   177800         1782.3381      300.71737      10523.464      3009.1523      13532.617      65293.633      87120        
    177900   177900         1783.346       294.03907      10540.941      2942.3252      13483.266      65310.398      87120        
    178000   178000         1784.3524      300.09976      10551.028      3002.972       13554          65329.631      87120        
    178100   178100         1785.353       309.5355       10450.051      3097.3915      13547.443      64936.205      87120        
    178200   178200         1786.3635      298.0499       10502.71       2982.46        13485.17       65163.27       87120        
    178300   178300         1787.3635      294.29121      10500.949      2944.8484      13445.798      65026.976      87120        
    178400   178400         1788.3615      306.73127      10420.818      3069.3308      13490.148      64857.477      87120        
    178500   178500         1789.3461      309.51524      10483.348      3097.1888      13580.537      65028.908      87120        
    178600   178600         1790.347       308.90504      10472.295      3091.0828      13563.378      64956.834      87120        
    178700   178700         1791.3301      301.95088      10431.983      3021.4954      13453.478      64844.267      87120        
    178800   178800         1792.3063      295.95722      10446.19       2961.5194      13407.71       64847.321      87120        
    178900   178900         1793.3082      297.10534      10490.773      2973.0082      13463.781      65029.095      87120        
    179000   179000         1794.3133      301.21474      10533.684      3014.1292      13547.813      65219.419      87120        
    179100   179100         1795.3334      300.47568      10579.193      3006.7337      13585.927      65377.892      87120        
    179200   179200         1796.3137      296.312        10603.495      2965.0695      13568.565      65464.201      87120        
    179300   179300         1797.306       294.08279      10536.652      2942.7627      13479.415      65244.358      87120        
    179400   179400         1798.2932      296.91831      10527.97       2971.1367      13499.107      65173.789      87120        
    179500   179500         1799.29        304.80633      10525.143      3050.0687      13575.211      65255.392      87120        
    179600   179600         1800.3029      303.54455      10534.105      3037.4426      13571.548      65332.668      87120        
    179700   179700         1801.312       296.11981      10523.778      2963.1464      13486.925      65144.99       87120        
    179800   179800         1802.3215      296.34373      10554.926      2965.387       13520.313      65354.081      87120        
    179900   179900         1803.3147      305.24827      10521.602      3054.491       13576.093      65292.736      87120        
    180000   180000         1804.32        302.12333      10574.308      3023.2211      13597.529      65407.279      87120        
    180100   180100         1805.3037      301.99286      10579.971      3021.9156      13601.887      65531.59       87120        
    180200   180200         1806.2956      291.89393      10610.146      2920.8597      13531.006      65555.277      87120        
    180300   180300         1807.3018      294.27728      10568.389      2944.709       13513.098      65401.182      87120        
    180400   180400         1808.3284      307.77103      10555.288      3079.7352      13635.023      65446.75       87120        
    180500   180500         1809.3539      303.43196      10611.953      3036.316       13648.269      65650.124      87120        
    180600   180600         1810.3565      302.89031      10526.908      3030.8959      13557.804      65273.862      87120        
    180700   180700         1811.3593      297.70314      10507.162      2978.9901      13486.152      65190.569      87120        
    180800   180800         1812.3503      293.75074      10526.728      2939.4401      13466.168      65218.478      87120        
    180900   180900         1813.3256      302.25685      10475.835      3024.5571      13500.392      65030.266      87120        
    181000   181000         1814.3153      304.46764      10449.824      3046.6796      13496.504      64944.613      87120        
    181100   181100         1815.2999      299.47438      10460.261      2996.7142      13456.975      64993.007      87120        
    181200   181200         1816.2732      298.56736      10446.427      2987.6379      13434.065      64857.206      87120        
    181300   181300         1817.2573      298.09682      10463.13       2982.9295      13446.06       65011.81       87120        
    181400   181400         1818.2443      304.56752      10463.413      3047.6791      13511.092      65010.426      87120        
    181500   181500         1819.2237      311.76131      10446.424      3119.6643      13566.088      64960.839      87120        
    181600   181600         1820.2294      299.44613      10504.552      2996.4315      13500.983      65204.95       87120        
    181700   181700         1821.2321      300.05509      10461.737      3002.5251      13464.262      64990.408      87120        
    181800   181800         1822.2244      297.08223      10503.091      2972.7769      13475.867      65149.719      87120        
    181900   181900         1823.2434      303.22266      10528.969      3034.2216      13563.191      65284.247      87120        
    182000   182000         1824.2758      305.90301      10563.265      3061.0427      13624.308      65417.277      87120        
    182100   182100         1825.2661      307.60579      10526.074      3078.0818      13604.156      65331.372      87120        
    182200   182200         1826.2841      294.68035      10605.104      2948.7423      13553.847      65622.153      87120        
    182300   182300         1827.3016      301.48425      10566.258      3016.8261      13583.084      65439.631      87120        
    182400   182400         1828.3239      303.36967      10602.002      3035.6926      13637.694      65517.897      87120        
    182500   182500         1829.3451      303.72191      10564.267      3039.2174      13603.484      65423.403      87120        
    182600   182600         1830.3709      294.29014      10528.898      2944.8376      13473.735      65329.694      87120        
    182700   182700         1831.3734      295.35082      10550.316      2955.4514      13505.768      65210.225      87120        
    182800   182800         1832.4087      301.13665      10575.098      3013.3478      13588.445      65438.311      87120        
    182900   182900         1833.4235      301.92898      10564.964      3021.2763      13586.241      65385.661      87120        
    183000   183000         1834.4375      295.49663      10566.25       2956.9105      13523.16       65303.123      87120        
    183100   183100         1835.4344      288.85915      10538.25       2890.492       13428.742      65271.964      87120        
    183200   183200         1836.4398      295.54519      10485.682      2957.3964      13443.078      65017.15       87120        
    183300   183300         1837.4265      308.47857      10466.809      3086.8153      13553.624      64974.859      87120        
    183400   183400         1838.414       301.72494      10480.472      3019.2345      13499.706      65056.846      87120        
    183500   183500         1839.4346      294.51209      10487.317      2947.0586      13434.376      64958.779      87120        
    183600   183600         1840.4409      301.08911      10429.139      3012.872       13442.011      64828.961      87120        
    183700   183700         1841.4544      301.70006      10480.09       3018.9856      13499.076      65060.329      87120        
    183800   183800         1842.4663      302.54263      10576.435      3027.4169      13603.852      65329.118      87120        
    183900   183900         1843.4871      302.33445      10544.473      3025.3337      13569.806      65287.78       87120        
    184000   184000         1844.4798      298.00155      10540.338      2981.9761      13522.314      65286.382      87120        
    184100   184100         1845.4662      296.46479      10534.533      2966.5984      13501.131      65205.939      87120        
    184200   184200         1846.4639      300.73426      10473.767      3009.3212      13483.088      65038.345      87120        
    184300   184300         1847.4538      299.20346      10544.148      2994.0032      13538.151      65336.118      87120        
    184400   184400         1848.457       314.27343      10503.955      3144.802       13648.757      65168.639      87120        
    184500   184500         1849.4573      307.45876      10495.493      3076.6104      13572.103      65155.926      87120        
    184600   184600         1850.4645      298.45664      10500.531      2986.53        13487.061      65139.555      87120        
    184700   184700         1851.4538      299.54064      10512.035      2997.3771      13509.412      65198.09       87120        
    184800   184800         1852.4613      299.02397      10564.125      2992.2071      13556.332      65447.522      87120        
    184900   184900         1853.4653      304.78059      10538.395      3049.8111      13588.206      65322.481      87120        
    185000   185000         1854.4762      298.96813      10643.439      2991.6483      13635.088      65706.82       87120        
    185100   185100         1855.4716      298.96793      10597.722      2991.6463      13589.368      65579.015      87120        
    185200   185200         1856.4789      297.05929      10533.361      2972.5473      13505.908      65314.707      87120        
    185300   185300         1857.4784      294.25945      10554.537      2944.5306      13499.068      65334.438      87120        
    185400   185400         1858.4878      300.86803      10547.947      3010.6598      13558.607      65369.714      87120        
    185500   185500         1859.5061      299.06013      10598.515      2992.5689      13591.084      65522.524      87120        
    185600   185600         1860.5192      301.60633      10554.348      3018.0477      13572.396      65368.243      87120        
    185700   185700         1861.537       299.90944      10532.043      3001.0676      13533.11       65277.084      87120        
    185800   185800         1862.5438      294.23291      10581.77       2944.265       13526.035      65401.297      87120        
    185900   185900         1863.527       303.36991      10562.12       3035.6951      13597.816      65354.998      87120        
    186000   186000         1864.5326      305.56416      10535.928      3057.652       13593.58       65271.363      87120        
    186100   186100         1865.5251      294.78366      10525.747      2949.776       13475.523      65181.291      87120        
    186200   186200         1866.5168      297.71817      10487.718      2979.1405      13466.858      65059.4        87120        
    186300   186300         1867.5123      302.5482       10492.349      3027.4726      13519.821      65076.449      87120        
    186400   186400         1868.5126      300.73869      10563.625      3009.3655      13572.99       65335.686      87120        
    186500   186500         1869.5213      304.97933      10507.467      3051.7998      13559.267      65204.051      87120        
    186600   186600         1870.5508      291.60255      10500.819      2917.944       13418.763      65155.654      87120        
    186700   186700         1871.5713      295.09459      10526.978      2952.8875      13479.866      65204.397      87120        
    186800   186800         1872.554       300.15406      10547.404      3003.5154      13550.919      65318.779      87120        
    186900   186900         1873.5575      304.43865      10530.874      3046.3895      13577.263      65243.388      87120        
    187000   187000         1874.5567      300.2983       10494.162      3004.9587      13499.121      65093.013      87120        
    187100   187100         1875.5475      297.87506      10477.473      2980.7104      13458.184      65079.231      87120        
    187200   187200         1876.5247      300.56389      10479.212      3007.6164      13486.829      65120.362      87120        
    187300   187300         1877.5192      300.13637      10547.205      3003.3384      13550.543      65266.526      87120        
    187400   187400         1878.5081      303.13214      10551.798      3033.3158      13585.114      65341.786      87120        
    187500   187500         1879.5164      303.61504      10465.117      3038.148       13503.265      65052.879      87120        
    187600   187600         1880.5088      293.51999      10512.334      2937.1311      13449.465      65183.404      87120        
    187700   187700         1881.4946      297.66868      10558.594      2978.6452      13537.239      65357.771      87120        
    187800   187800         1882.4976      303.03116      10553.884      3032.3054      13586.189      65373.294      87120        
    187900   187900         1883.5019      305.26912      10507.763      3054.6997      13562.463      65211.532      87120        
    188000   188000         1884.5057      295.91298      10518.945      2961.0767      13480.021      65129.883      87120        
    188100   188100         1885.4906      296.91653      10489.42       2971.1188      13460.539      65093.428      87120        
    188200   188200         1886.4911      301.26346      10591.819      3014.6167      13606.435      65450.265      87120        
    188300   188300         1887.49        301.12953      10599.074      3013.2765      13612.351      65471.573      87120        
    188400   188400         1888.4972      295.90875      10586.763      2961.0344      13547.797      65423.617      87120        
    188500   188500         1889.5021      298.31071      10511.414      2985.0698      13496.484      65118.357      87120        
    188600   188600         1890.5055      298.77722      10519.254      2989.7379      13508.992      65165.365      87120        
    188700   188700         1891.5074      299.86809      10560.719      3000.6538      13561.373      65226.966      87120        
    188800   188800         1892.4908      306.39945      10525.754      3066.0104      13591.764      65166.522      87120        
    188900   188900         1893.4842      301.98043      10488.683      3021.7912      13510.474      65065.976      87120        
    189000   189000         1894.4826      302.6915       10441.278      3028.9065      13470.185      64896.595      87120        
    189100   189100         1895.4616      302.52253      10408.465      3027.2156      13435.681      64748.9        87120        
    189200   189200         1896.4355      299.86154      10432.691      3000.5883      13433.28       64800.542      87120        
    189300   189300         1897.4262      302.30048      10489.308      3024.9938      13514.301      65117.549      87120        
    189400   189400         1898.4129      306.4546       10523.666      3066.5622      13590.228      65153.484      87120        
    189500   189500         1899.3822      300.37641      10527.874      3005.7404      13533.615      65206.934      87120        
    189600   189600         1900.3772      298.58131      10462.768      2987.7775      13450.546      64917.293      87120        
    189700   189700         1901.3676      295.10873      10520.16       2953.0289      13473.188      65170.35       87120        
    189800   189800         1902.3638      299.88859      10522.486      3000.8589      13523.345      65144.406      87120        
    189900   189900         1903.3453      300.49513      10575.057      3006.9284      13581.985      65434.874      87120        
    190000   190000         1904.3459      304.67283      10558.333      3048.7329      13607.065      65325.659      87120        
    190100   190100         1905.327       297.75757      10560.263      2979.5347      13539.798      65351.662      87120        
    190200   190200         1906.3294      288.56106      10634.127      2887.5091      13521.636      65651.608      87120        
    190300   190300         1907.3398      295.17631      10677.033      2953.7052      13630.738      65779.534      87120        
    190400   190400         1908.3463      304.91423      10610.663      3051.1484      13661.812      65556.38       87120        
    190500   190500         1909.3504      299.13638      10580.147      2993.3319      13573.479      65482.009      87120        
    190600   190600         1910.3581      292.26985      10595.504      2924.6215      13520.125      65462.475      87120        
    190700   190700         1911.3633      303.57063      10496.647      3037.7035      13534.351      65124.519      87120        
    190800   190800         1912.3659      298.44408      10546.521      2986.4044      13532.925      65277.779      87120        
    190900   190900         1913.3699      305.0066       10552.866      3052.0728      13604.939      65305.824      87120        
    191000   191000         1914.375       303.67475      10592.392      3038.7455      13631.137      65419.085      87120        
    191100   191100         1915.3572      301.48046      10547.274      3016.7881      13564.062      65284.485      87120        
    191200   191200         1916.3265      297.74162      10485.756      2979.3752      13465.131      65026.273      87120        
    191300   191300         1917.3118      296.90984      10486.882      2971.0518      13457.934      65011.365      87120        
    191400   191400         1918.2944      299.32545      10476.93       2995.2239      13472.153      64954.007      87120        
    191500   191500         1919.2787      299.94308      10459.522      3001.4043      13460.926      64875.322      87120        
    191600   191600         1920.2558      301.70424      10436.044      3019.0274      13455.071      64818.812      87120        
    191700   191700         1921.2421      295.5408       10472.039      2957.3525      13429.392      64975.547      87120        
    191800   191800         1922.2302      296.48003      10514.013      2966.7509      13480.764      65141.247      87120        
    191900   191900         1923.2259      301.98612      10560.417      3021.8481      13582.265      65314.996      87120        
    192000   192000         1924.2245      301.76712      10552.056      3019.6566      13571.712      65305.085      87120        
    192100   192100         1925.1993      297.04817      10562.682      2972.4361      13535.118      65293.091      87120        
    192200   192200         1926.1811      300.60475      10491.215      3008.0253      13499.24       65113.531      87120        
    192300   192300         1927.1695      292.89142      10538.463      2930.8412      13469.304      65247.782      87120        
    192400   192400         1928.164       302.95772      10498.255      3031.5705      13529.825      65150.678      87120        
    192500   192500         1929.1597      301.25621      10534.931      3014.5441      13549.475      65296.641      87120        
    192600   192600         1930.1648      294.85005      10580.476      2950.4405      13530.917      65497.688      87120        
    192700   192700         1931.1636      301.16281      10559.646      3013.6095      13573.256      65412.781      87120        
    192800   192800         1932.1669      305.94961      10591.886      3061.509       13653.395      65556.561      87120        
    192900   192900         1933.1679      307.43537      10585.347      3076.3764      13661.723      65553.101      87120        
    193000   193000         1934.1639      299.87856      10593.864      3000.7586      13594.622      65543.239      87120        
    193100   193100         1935.1503      299.99276      10554.56       3001.9014      13556.462      65371.523      87120        
    193200   193200         1936.1511      301.81211      10507.554      3020.1069      13527.66       65217.861      87120        
    193300   193300         1937.1536      294.2558       10548.37       2944.494       13492.864      65332.168      87120        
    193400   193400         1938.172       299.54947      10566.228      2997.4655      13563.694      65388.382      87120        
    193500   193500         1939.1896      307.81104      10517.303      3080.1356      13597.438      65258.824      87120        
    193600   193600         1940.185       298.45182      10538.572      2986.4818      13525.054      65250.074      87120        
    193700   193700         1941.1957      299.27014      10486.16       2994.6704      13480.83       65051.941      87120        
    193800   193800         1942.208       295.73054      10491.817      2959.2511      13451.068      65099.85       87120        
    193900   193900         1943.2259      297.16606      10479.363      2973.6157      13452.979      65072.161      87120        
    194000   194000         1944.243       308.09195      10494.891      3082.9466      13577.838      65098.518      87120        
    194100   194100         1945.2211      300.45745      10533.986      3006.5513      13540.537      65216.034      87120        
    194200   194200         1946.2163      299.22148      10472.371      2994.1835      13466.554      65055.205      87120        
    194300   194300         1947.2002      292.11122      10523.436      2923.0341      13446.47       65145.159      87120        
    194400   194400         1948.1827      302.17156      10506.977      3023.7037      13530.681      65120.793      87120        
    194500   194500         1949.1788      300.43422      10534.207      3006.3188      13540.526      65256.769      87120        
    194600   194600         1950.164       296.26962      10573.611      2964.6455      13538.256      65347.732      87120        
    194700   194700         1951.1717      303.236        10510.537      3034.3551      13544.892      65137.702      87120        
    194800   194800         1952.1665      289.00611      10564.301      2891.9625      13456.263      65330.446      87120        
    194900   194900         1953.1781      294.44156      10504.238      2946.3528      13450.591      65100.639      87120        
    195000   195000         1954.1719      302.33825      10502.672      3025.3717      13528.044      65161.17       87120        
    195100   195100         1955.1523      299.4489       10550.003      2996.4592      13546.462      65334.766      87120        
    195200   195200         1956.1378      303.00417      10528.43       3032.0353      13560.465      65223.199      87120        
    195300   195300         1957.1188      300.08807      10515.225      3002.8551      13518.08       65201.66       87120        
    195400   195400         1958.125       292.65959      10524.886      2928.5214      13453.407      65270.047      87120        
    195500   195500         1959.1225      298.70674      10507.825      2989.0327      13496.858      65187.065      87120        
    195600   195600         1960.1174      300.95586      10528.88       3011.5387      13540.419      65286.399      87120        
    195700   195700         1961.1165      298.492        10563.743      2986.8839      13550.627      65437.856      87120        
    195800   195800         1962.1111      298.50134      10536.815      2986.9774      13523.792      65327.843      87120        
    195900   195900         1963.1129      297.30025      10511.152      2974.9585      13486.111      65195.906      87120        
    196000   196000         1964.1171      300.11326      10520.851      3003.1072      13523.958      65268.659      87120        
    196100   196100         1965.1123      305.62644      10511.195      3058.2753      13569.47       65252.828      87120        
    196200   196200         1966.1101      302.16719      10526.776      3023.66        13550.436      65305.168      87120        
    196300   196300         1967.1115      298.71716      10499.733      2989.137       13488.87       65204.439      87120        
    196400   196400         1968.1201      294.29633      10568.922      2944.8996      13513.821      65442.633      87120        
    196500   196500         1969.1437      308.3167       10545.924      3085.1955      13631.119      65401.642      87120        
    196600   196600         1970.156       299.761        10599.886      2999.5822      13599.468      65531.907      87120        
    196700   196700         1971.1661      299.03541      10555.071      2992.3216      13547.393      65421.747      87120        
    196800   196800         1972.1657      298.7011       10523.62       2988.9762      13512.596      65300.578      87120        
    196900   196900         1973.1708      291.59929      10599.809      2917.9114      13517.72       65514.681      87120        
    197000   197000         1974.1748      302.18463      10614.465      3023.8345      13638.3        65591.559      87120        
    197100   197100         1975.1689      303.21618      10586.029      3034.1568      13620.186      65487.774      87120        
    197200   197200         1976.1631      297.0626       10552.297      2972.5805      13524.877      65331.427      87120        
    197300   197300         1977.1417      294.23368      10542.209      2944.2727      13486.482      65296.689      87120        
    197400   197400         1978.1355      300.66346      10544.739      3008.6127      13553.352      65338.487      87120        
    197500   197500         1979.1192      308.01947      10465.684      3082.2212      13547.905      65013.372      87120        
    197600   197600         1980.1121      301.62498      10488.421      3018.2343      13506.656      65129.668      87120        
    197700   197700         1981.1152      295.56511      10519.236      2957.5957      13476.832      65123.947      87120        
    197800   197800         1982.0986      299.15882      10462.208      2993.5565      13455.764      64936.362      87120        
    197900   197900         1983.088       293.58698      10464.593      2937.8014      13402.394      65032.486      87120        
    198000   198000         1984.0757      296.27938      10458.039      2964.7431      13422.782      64933.365      87120        
    198100   198100         1985.0371      305.8343       10467.983      3060.3552      13528.338      64952.133      87120        
    198200   198200         1986.0252      304.62273      10489.359      3048.2315      13537.59       65151.408      87120        
    198300   198300         1987.025       299.54222      10496.966      2997.393       13494.36       65125.237      87120        
    198400   198400         1988.0386      296.52195      10523.696      2967.1704      13490.867      65181.467      87120        
    198500   198500         1989.0418      295.72605      10558.691      2959.2062      13517.898      65371.902      87120        
    198600   198600         1990.0249      304.30039      10568.881      3045.006       13613.887      65487.917      87120        
    198700   198700         1991.018       306.09862      10554.314      3063.0002      13617.314      65372.464      87120        
    198800   198800         1992.0123      296.16358      10573.668      2963.5844      13537.253      65454.049      87120        
    198900   198900         1993.015       294.74265      10551.352      2949.3658      13500.718      65326.807      87120        
    199000   199000         1994.0249      299.60449      10573.063      2998.0161      13571.079      65370.648      87120        
    199100   199100         1995.0054      301.50583      10574.902      3017.042       13591.944      65478.553      87120        
    199200   199200         1996.0193      295.37377      10611.212      2955.6811      13566.893      65542.019      87120        
    199300   199300         1997.0084      302.61107      10530.216      3028.1017      13558.317      65268.345      87120        
    199400   199400         1998.0143      296.5148       10513.728      2967.0989      13480.827      65193.17       87120        
    199500   199500         1999.011       295.40414      10534.57       2955.985       13490.555      65212.918      87120        
    199600   199600         1999.9888      304.9722       10500.205      3051.7285      13551.934      65132.557      87120        
    199700   199700         2000.9784      299.47605      10509.975      2996.7309      13506.705      65075.696      87120        
    199800   199800         2001.9766      299.17054      10438.671      2993.6737      13432.345      64834.085      87120        
    199900   199900         2002.9633      297.07079      10410.269      2972.6624      13382.931      64717.139      87120        
    200000   200000         2003.9705      298.92802      10442.943      2991.2469      13434.19       64876.084      87120        
    200100   200100         2004.9512      297.89992      10494.661      2980.9592      13475.621      65015.317      87120        
    200200   200200         2005.9394      299.6805       10487.69       2998.7767      13486.466      64988.404      87120        
    200300   200300         2006.924       295.19157      10518.547      2953.8579      13472.405      65125.157      87120        
    200400   200400         2007.9319      297.01421      10514.132      2972.0963      13486.228      65081.008      87120        
    200500   200500         2008.9275      302.18239      10540.67       3023.812       13564.482      65182.822      87120        
    200600   200600         2009.9425      309.63211      10452.444      3098.3582      13550.802      64947.525      87120        
    200700   200700         2010.9687      295.69437      10535.574      2958.8892      13494.463      65169.692      87120        
    200800   200800         2011.9815      298.43086      10527.431      2986.2721      13513.704      65232.869      87120        
    200900   200900         2013.0173      298.93225      10568.889      2991.2893      13560.178      65455.093      87120        
    201000   201000         2014.027       304.45123      10596.714      3046.5154      13643.23       65459.625      87120        
    201100   201100         2015.0336      307.58178      10609.275      3077.8415      13687.117      65593.639      87120        
    201200   201200         2016.0534      299.17876      10598.21       2993.756       13591.966      65551.817      87120        
    201300   201300         2017.0731      297.92005      10587.017      2981.1607      13568.177      65512.233      87120        
    201400   201400         2018.105       302.08189      10589.181      3022.8064      13611.988      65590.477      87120        
    201500   201500         2019.1096      305.39917      10636.884      3056.001       13692.885      65748.323      87120        
    201600   201600         2020.133       310.54691      10627.975      3107.5123      13735.488      65712.386      87120        
    201700   201700         2021.1434      301.39245      10637.267      3015.9074      13653.175      65727.194      87120        
    201800   201800         2022.1677      302.34361      10617.336      3025.4253      13642.761      65673.354      87120        
    201900   201900         2023.1818      301.94707      10607.132      3021.4573      13628.589      65573.598      87120        
    202000   202000         2024.1886      301.28841      10571.172      3014.8664      13586.039      65441.23       87120        
    202100   202100         2025.1809      297.61292      10555.577      2978.0873      13533.664      65405.134      87120        
    202200   202200         2026.1752      299.82232      10504.65       3000.1958      13504.846      65213.98       87120        
    202300   202300         2027.1656      301.76698      10541.557      3019.6553      13561.212      65259.233      87120        
    202400   202400         2028.1502      302.29969      10586.469      3024.9859      13611.455      65518.918      87120        
    202500   202500         2029.1501      298.68751      10588.415      2988.8403      13577.256      65441.871      87120        
    202600   202600         2030.147       292.01824      10546.966      2922.1037      13469.07       65177.461      87120        
    202700   202700         2031.1465      295.50601      10487.666      2957.0043      13444.67       65097.484      87120        
    202800   202800         2032.1362      306.89895      10464.777      3071.0087      13535.785      65044.124      87120        
    202900   202900         2033.1434      302.48617      10510.611      3026.8518      13537.463      65070.048      87120        
    203000   203000         2034.1287      301.38436      10495.289      3015.8265      13511.116      65069.82       87120        
    203100   203100         2035.097       294.18713      10511.836      2943.8068      13455.643      65090.204      87120        
    203200   203200         2036.0788      297.459        10521.817      2976.5471      13498.364      65123.002      87120        
    203300   203300         2037.0675      308.23502      10562.026      3084.3782      13646.405      65374.105      87120        
    203400   203400         2038.066       311.75646      10563.505      3119.6158      13683.12       65382.343      87120        
    203500   203500         2039.083       302.90701      10554.263      3031.063       13585.326      65281.031      87120        
    203600   203600         2040.082       304.10647      10490.542      3043.0655      13533.608      65152.348      87120        
    203700   203700         2041.1025      294.58162      10522.32       2947.7544      13470.075      65232.766      87120        
    203800   203800         2042.0971      293.7732       10591.435      2939.6648      13531.1        65499.112      87120        
    203900   203900         2043.1099      304.92791      10597.211      3051.2853      13648.497      65603.578      87120        
    204000   204000         2044.1307      300.54074      10627.719      3007.3847      13635.104      65665.651      87120        
    204100   204100         2045.1187      295.86766      10633.449      2960.6232      13594.072      65675.514      87120        
    204200   204200         2046.1207      298.35688      10599.36       2985.5318      13584.891      65582.604      87120        
    204300   204300         2047.1249      301.51665      10592.955      3017.1503      13610.106      65616.786      87120        
    204400   204400         2048.1344      305.35987      10648.647      3055.6078      13704.255      65689.745      87120        
    204500   204500         2049.151       308.64961      10618.035      3088.5268      13706.562      65651.217      87120        
    204600   204600         2050.1664      304.14804      10553.233      3043.4815      13596.715      65472.989      87120        
    204700   204700         2051.1667      298.24613      10548.951      2984.4235      13533.375      65356.382      87120        
    204800   204800         2052.1929      292.20666      10589.053      2923.9891      13513.042      65462.76       87120        
    204900   204900         2053.1794      301.20475      10539.348      3014.0293      13553.378      65303.224      87120        
    205000   205000         2054.1871      305.66429      10514.337      3058.654       13572.991      65148.808      87120        
    205100   205100         2055.1845      293.261        10559.898      2934.5395      13494.437      65309.99       87120        
    205200   205200         2056.1841      288.80702      10493.973      2889.9704      13383.943      65029.018      87120        
    205300   205300         2057.1719      295.29818      10472.2        2954.9247      13427.125      64970.09       87120        
    205400   205400         2058.1637      292.21744      10535.468      2924.097       13459.565      65157.007      87120        
    205500   205500         2059.155       298.10353      10517.85       2982.9966      13500.846      65077.787      87120        
    205600   205600         2060.1405      305.41733      10457.591      3056.1828      13513.774      64971.343      87120        
    205700   205700         2061.1209      299.29448      10491.522      2994.914       13486.436      65045.802      87120        
    205800   205800         2062.1044      290.21471      10588.586      2904.0565      13492.642      65362.935      87120        
    205900   205900         2063.0971      306.82224      10521.07       3070.241       13591.311      65207.349      87120        
    206000   206000         2064.0898      305.38159      10548.101      3055.8252      13603.926      65243.572      87120        
    206100   206100         2065.0463      294.11741      10591.134      2943.1092      13534.243      65441.3        87120        
    206200   206200         2066.0278      296.72011      10553.569      2969.1533      13522.723      65276.344      87120        
    206300   206300         2067.0031      299.04351      10563.233      2992.4026      13555.636      65392.24       87120        
    206400   206400         2068.0062      304.28298      10533.119      3044.8318      13577.95       65312.611      87120        
    206500   206500         2069.0018      294.43936      10610.146      2946.3308      13556.476      65489.648      87120        
    206600   206600         2070.0152      298.66791      10577.891      2988.6441      13566.535      65407.546      87120        
    206700   206700         2071.0075      301.90752      10543.19       3021.0616      13564.252      65315.958      87120        
    206800   206800         2072.0053      294.30736      10621.772      2945.0099      13566.782      65564.495      87120        
    206900   206900         2072.9962      300.35375      10550.551      3005.5137      13556.064      65281.197      87120        
    207000   207000         2073.9963      297.56513      10581.252      2977.6091      13558.861      65416.079      87120        
    207100   207100         2074.981       299.81567      10550.508      3000.1293      13550.638      65314.017      87120        
    207200   207200         2075.975       298.85137      10495.593      2990.4799      13486.073      65141.858      87120        
    207300   207300         2076.9755      291.06977      10530.615      2912.6128      13443.227      65236.954      87120        
    207400   207400         2077.9927      303.77577      10467.186      3039.7563      13506.942      65017.006      87120        
    207500   207500         2078.9926      308.50428      10516.567      3087.0726      13603.64       65228.843      87120        
    207600   207600         2079.9952      309.79671      10592.897      3100.0054      13692.903      65557.536      87120        
    207700   207700         2080.991       306.08301      10568.703      3062.8439      13631.547      65472.186      87120        
    207800   207800         2082.0014      298.09688      10544.682      2982.93        13527.612      65288.653      87120        
    207900   207900         2083.0006      288.42702      10620.476      2886.1678      13506.644      65583.367      87120        
    208000   208000         2083.985       299.67074      10588.021      2998.6791      13586.7        65491.257      87120        
    208100   208100         2084.968       305.40897      10607.675      3056.0991      13663.774      65590.231      87120        
    208200   208200         2085.9535      309.09472      10544.7        3092.9808      13637.681      65380.417      87120        
    208300   208300         2086.9435      299.6264       10532.679      2998.2353      13530.914      65302.515      87120        
    208400   208400         2087.9337      292.01373      10572.836      2922.0585      13494.895      65360.046      87120        
    208500   208500         2088.9207      301.94983      10520.716      3021.4849      13542.201      65232.78       87120        
    208600   208600         2089.911       301.84331      10518.386      3020.4191      13538.805      65192.354      87120        
    208700   208700         2090.8979      299.21588      10527.982      2994.1274      13522.11       65158.698      87120        
    208800   208800         2091.8659      301.96224      10460.066      3021.6091      13481.675      64941.81       87120        
    208900   208900         2092.8524      291.72896      10486.297      2919.209       13405.506      64975.774      87120        
    209000   209000         2093.8428      292.83255      10475.91       2930.2522      13406.163      64941.385      87120        
    209100   209100         2094.8265      305.25508      10461.644      3054.5592      13516.203      64914.91       87120        
    209200   209200         2095.8125      302.71595      10470.674      3029.1512      13499.825      64919.624      87120        
    209300   209300         2096.7744      300.2927       10454.658      3004.9027      13459.561      64891.629      87120        
    209400   209400         2097.7534      294.05471      10454.346      2942.4817      13396.828      64881.059      87120        
    209500   209500         2098.7353      293.28114      10501.983      2934.741       13436.724      65023.576      87120        
    209600   209600         2099.7172      291.18459      10596.23       2913.7617      13509.991      65397.53       87120        
    209700   209700         2100.7002      305.93192      10501.755      3061.332       13563.087      65069.265      87120        
    209800   209800         2101.6876      300.09948      10497.503      3002.9692      13500.473      65023.045      87120        
    209900   209900         2102.6723      293.45175      10524.631      2936.4482      13461.079      65159.705      87120        
    210000   210000         2103.6604      301.26492      10507.142      3014.6314      13521.773      65180.55       87120        
    210100   210100         2104.6423      302.92699      10583.789      3031.263       13615.052      65457.473      87120        
    210200   210200         2105.6241      314.06008      10583.874      3142.6671      13726.541      65504.221      87120        
    210300   210300         2106.6183      307.38875      10555.879      3075.9099      13631.789      65358.424      87120        
    210400   210400         2107.6138      304.05676      10486.541      3042.5681      13529.109      65131.366      87120        
    210500   210500         2108.6307      295.62959      10528.778      2958.2409      13487.019      65253.118      87120        
    210600   210600         2109.6284      294.30891      10567.685      2945.0255      13512.71       65353.94       87120        
    210700   210700         2110.6398      304.04735      10540.866      3042.4739      13583.34       65400.852      87120        
    210800   210800         2111.6555      303.92094      10559.213      3041.209       13600.422      65458.835      87120        
    210900   210900         2112.6656      297.3249       10557.109      2975.2052      13532.314      65424.341      87120        
    211000   211000         2113.6983      297.52727      10511.303      2977.2302      13488.533      65282.997      87120        
    211100   211100         2114.6838      293.74171      10585.399      2939.3497      13524.749      65532.867      87120        
    211200   211200         2115.6996      301.59542      10575.565      3017.9384      13593.504      65490.869      87120        
    211300   211300         2116.7012      300.72071      10577.891      3009.1856      13587.077      65526.357      87120        
    211400   211400         2117.71        302.32165      10546.309      3025.2056      13571.515      65384.03       87120        
    211500   211500         2118.7036      296.57776      10623.531      2967.7289      13591.26       65587.893      87120        
    211600   211600         2119.7231      306.58789      10611.378      3067.8961      13679.274      65631.908      87120        
    211700   211700         2120.7324      306.39393      10551.624      3065.9552      13617.579      65416.325      87120        
    211800   211800         2121.7366      292.12449      10566.889      2923.1668      13490.056      65393.343      87120        
    211900   211900         2122.736       303.53527      10510.308      3037.3498      13547.657      65212.422      87120        
    212000   212000         2123.732       305.03991      10510.516      3052.4061      13562.923      65217.325      87120        
    212100   212100         2124.7133      300.25066      10504.975      3004.4821      13509.457      65139.151      87120        
    212200   212200         2125.7023      293.173        10527.615      2933.6589      13461.274      65190.266      87120        
    212300   212300         2126.6698      299.34964      10558.531      2995.4659      13553.997      65290.175      87120        
    212400   212400         2127.6595      303.51512      10542.867      3037.1481      13580.015      65261.169      87120        
    212500   212500         2128.6538      304.27836      10478.433      3044.7855      13523.219      65034.927      87120        
    212600   212600         2129.6679      298.23991      10459.686      2984.3613      13444.047      64974.605      87120        
    212700   212700         2130.665       294.94789      10481.115      2951.4195      13432.535      65010.505      87120        
    212800   212800         2131.6638      301.24331      10491.276      3014.415       13505.691      65033.585      87120        
    212900   212900         2132.6453      303.65438      10498.983      3038.5417      13537.525      65116.738      87120        
    213000   213000         2133.6454      300.97429      10486.525      3011.7231      13498.248      65034.504      87120        
    213100   213100         2134.6214      299.13573      10528.12       2993.3254      13521.446      65197.906      87120        
    213200   213200         2135.5936      299.08266      10570.401      2992.7944      13563.195      65412.282      87120        
    213300   213300         2136.5834      299.81631      10550.649      3000.1357      13550.784      65341.508      87120        
    213400   213400         2137.5664      289.14709      10607.87       2893.3733      13501.243      65506.254      87120        
    213500   213500         2138.5643      297.03144      10560.068      2972.2687      13532.337      65400.246      87120        
    213600   213600         2139.5668      304.26692      10572.326      3044.671       13616.997      65427.629      87120        
    213700   213700         2140.5707      306.44759      10550.976      3066.4922      13617.468      65350.613      87120        
    213800   213800         2141.5778      295.33004      10619.591      2955.2435      13574.835      65568.54       87120        
    213900   213900         2142.562       300.44168      10542.714      3006.3935      13549.107      65280.506      87120        
    214000   214000         2143.561       297.50635      10505.924      2977.0209      13482.945      65126.409      87120        
    214100   214100         2144.5404      290.43117      10488.576      2906.2225      13394.798      65081.159      87120        
    214200   214200         2145.5268      296.77454      10490.261      2969.698       13459.959      65047.786      87120        
    214300   214300         2146.494       303.69083      10466.042      3038.9064      13504.948      64955.414      87120        
    214400   214400         2147.4769      298.19056      10500.615      2983.8675      13484.483      65134.556      87120        
    214500   214500         2148.4644      301.27309      10477.038      3014.7131      13491.751      64973.889      87120        
    214600   214600         2149.4496      303.60031      10484.947      3038.0006      13522.948      65007.581      87120        
    214700   214700         2150.4401      298.13939      10486.442      2983.3554      13469.797      65041.713      87120        
    214800   214800         2151.414       293.80678      10492.991      2940.0008      13432.992      65022.693      87120        
    214900   214900         2152.4047      295.86889      10505.993      2960.6356      13466.629      65073.896      87120        
    215000   215000         2153.4047      304.66402      10488.183      3048.6447      13536.828      65082.587      87120        
    215100   215100         2154.3884      306.71558      10537.659      3069.1737      13606.833      65170.184      87120        
    215200   215200         2155.3735      306.0205       10580.013      3062.2184      13642.232      65434.951      87120        
    215300   215300         2156.38        301.40579      10516.895      3016.0409      13532.935      65191.661      87120        
    215400   215400         2157.3713      292.78158      10579.303      2929.7421      13509.045      65416.859      87120        
    215500   215500         2158.3683      308.46363      10509.038      3086.6658      13595.703      65274.428      87120        
    215600   215600         2159.3911      303.89449      10570.682      3040.9443      13611.626      65458.386      87120        
    215700   215700         2160.4003      297.56005      10564.186      2977.5583      13541.744      65463.421      87120        
    215800   215800         2161.4056      294.59388      10582.448      2947.877       13530.325      65516.819      87120        
    215900   215900         2162.4083      299.39719      10561.547      2995.9418      13557.489      65387.171      87120        
    216000   216000         2163.4161      301.56923      10553.173      3017.6764      13570.85       65395.04       87120        
    216100   216100         2164.3928      302.6247       10548.64       3028.2381      13576.878      65373.24       87120        
    216200   216200         2165.4021      304.18517      10590.497      3043.8531      13634.35       65457.786      87120        
    216300   216300         2166.3941      314.29112      10581.333      3144.9791      13726.312      65536.515      87120        
    216400   216400         2167.3903      309.68678      10513.695      3098.9053      13612.6        65232.661      87120        
    216500   216500         2168.3937      300.384        10510.956      3005.8163      13516.773      65095.561      87120        
    216600   216600         2169.3962      293.45549      10544.053      2936.4856      13480.538      65284.268      87120        
    216700   216700         2170.3876      303.06657      10475.611      3032.6597      13508.27       64977.36       87120        
    216800   216800         2171.3838      303.09433      10484.218      3032.9374      13517.156      64958.742      87120        
    216900   216900         2172.3683      298.24481      10455.197      2984.4104      13439.607      64968.43       87120        
    217000   217000         2173.3591      293.2177       10416.454      2934.1062      13350.561      64724.386      87120        
    217100   217100         2174.3406      296.80948      10455.256      2970.0476      13425.304      64918.301      87120        
    217200   217200         2175.3328      303.95152      10471.398      3041.515       13512.913      65025.102      87120        
    217300   217300         2176.3251      299.0391       10516.453      2992.3585      13508.811      65153.095      87120        
    217400   217400         2177.3169      297.71937      10519.51       2979.1525      13498.663      65202.366      87120        
    217500   217500         2178.3039      299.34567      10529.559      2995.4262      13524.985      65262.446      87120        
    217600   217600         2179.3077      310.26771      10505.287      3104.7185      13610.005      65134.529      87120        
    217700   217700         2180.3039      300.8154       10557.605      3010.1331      13567.738      65331.188      87120        
    217800   217800         2181.3059      297.94556      10556.806      2981.4159      13538.222      65364.842      87120        
    217900   217900         2182.3162      304.37341      10497.639      3045.7367      13543.376      65122.249      87120        
    218000   218000         2183.3135      298.96345      10532.285      2991.6014      13523.887      65323.16       87120        
    218100   218100         2184.3331      298.91094      10597.231      2991.076       13588.307      65516.352      87120        
    218200   218200         2185.3423      309.26703      10562.221      3094.7051      13656.926      65321.923      87120        
    218300   218300         2186.3497      302.6516       10527.895      3028.5073      13556.402      65260.154      87120        
    218400   218400         2187.3368      301.50164      10481.707      3017.0001      13498.707      65093.66       87120        
    218500   218500         2188.3416      296.54528      10492.723      2967.4039      13460.127      65088.572      87120        
    218600   218600         2189.3454      299.26179      10506.198      2994.5869      13500.784      65161.288      87120        
    218700   218700         2190.3295      301.99033      10566.26       3021.8902      13588.15       65454.761      87120        
    218800   218800         2191.3317      300.49716      10559.588      3006.9486      13566.537      65358.995      87120        
    218900   218900         2192.345       297.0224       10560.804      2972.1782      13532.983      65390.812      87120        
    219000   219000         2193.3611      302.40163      10501.31       3026.0059      13527.316      65179.247      87120        
    219100   219100         2194.3565      297.53256      10547.546      2977.2832      13524.829      65312.427      87120        
    219200   219200         2195.3312      291.39564      10607.564      2915.8736      13523.437      65506.149      87120        
    219300   219300         2196.3291      298.8848       10601.839      2990.8144      13592.653      65521.115      87120        
    219400   219400         2197.3368      305.70214      10607.405      3059.0327      13666.438      65533.197      87120        
    219500   219500         2198.3522      301.41743      10625.784      3016.1574      13641.941      65670.069      87120        
    219600   219600         2199.3573      295.49334      10571.908      2956.8776      13528.786      65405.494      87120        
    219700   219700         2200.3647      297.77568      10522.626      2979.7159      13502.342      65238.511      87120        
    219800   219800         2201.3698      300.75272      10525.539      3009.5059      13535.045      65286.667      87120        
    219900   219900         2202.3518      301.38334      10553.774      3015.8163      13569.59       65323.534      87120        
    220000   220000         2203.3542      304.87471      10534.508      3050.753       13585.261      65251.259      87120        
    220100   220100         2204.3453      300.52898      10492.775      3007.2671      13500.042      65068.317      87120        
    220200   220200         2205.3355      290.76686      10479.028      2909.5816      13388.61       64995.851      87120        
    220300   220300         2206.3299      290.9905       10541.808      2911.8195      13453.628      65174.017      87120        
    220400   220400         2207.3255      302.11824      10501.078      3023.1702      13524.248      65096.311      87120        
    220500   220500         2208.3235      301.42894      10532.976      3016.2726      13549.248      65256.781      87120        
    220600   220600         2209.2955      296.72293      10538.321      2969.1815      13507.503      65188.729      87120        
    220700   220700         2210.287       292.63067      10540.92       2928.232       13469.152      65288.199      87120        
    220800   220800         2211.2636      301.12472      10565.397      3013.2284      13578.626      65338.847      87120        
    220900   220900         2212.2595      309.87343      10519.199      3100.773       13619.972      65167.435      87120        
    221000   221000         2213.2486      304.10283      10508.672      3043.0291      13551.701      65187.359      87120        
    221100   221100         2214.2222      296.7978       10526.558      2969.9308      13496.488      65231.164      87120        
    221200   221200         2215.2169      291.45334      10561.638      2916.451       13478.089      65260.482      87120        
    221300   221300         2216.216       304.19266      10473.094      3043.9279      13517.022      65052.95       87120        
    221400   221400         2217.2005      305.18889      10512.297      3053.8968      13566.194      65148.839      87120        
    221500   221500         2218.2021      297.4347       10537.199      2976.3039      13513.503      65222.255      87120        
    221600   221600         2219.1899      298.21108      10484.427      2984.0728      13468.499      65126.935      87120        
    221700   221700         2220.1694      305.56641      10473.322      3057.6745      13530.997      65064.815      87120        
    221800   221800         2221.1654      305.3198       10523.648      3055.2068      13578.854      65160.396      87120        
    221900   221900         2222.1687      299.75228      10549.418      2999.495       13548.913      65329.79       87120        
    222000   222000         2223.1709      292.63618      10537.158      2928.2871      13465.445      65189.861      87120        
    222100   222100         2224.1415      299.25266      10490.805      2994.4955      13485.3        65156.683      87120        
    222200   222200         2225.1513      300.49714      10560.685      3006.9484      13567.634      65456.242      87120        
    222300   222300         2226.1468      304.426        10564.43       3046.2629      13610.693      65384.492      87120        
    222400   222400         2227.1422      302.07621      10571.508      3022.7496      13594.258      65471.206      87120        
    222500   222500         2228.1403      300.14128      10568.71       3003.3876      13572.097      65480.197      87120        
    222600   222600         2229.1419      297.67907      10599.345      2978.7492      13578.095      65518.545      87120        
    222700   222700         2230.1474      299.65759      10673.124      2998.5475      13671.672      65832.656      87120        
    222800   222800         2231.1497      309.29231      10616.723      3094.958       13711.681      65641.527      87120        
    222900   222900         2232.1692      297.58127      10628.221      2977.7706      13605.992      65561.203      87120        
    223000   223000         2233.1725      295.72635      10609.8        2959.2092      13569.01       65566.58       87120        
    223100   223100         2234.1523      304.77668      10512.379      3049.772       13562.151      65276.688      87120        
    223200   223200         2235.1371      300.79317      10499.045      3009.9107      13508.955      65089.664      87120        
    223300   223300         2236.1094      295.02186      10514.59       2952.1597      13466.75       65165.028      87120        
    223400   223400         2237.1016      301.35303      10514.941      3015.513       13530.454      65162.167      87120        
    223500   223500         2238.0906      304.66549      10545.782      3048.6594      13594.441      65240.297      87120        
    223600   223600         2239.0907      298.90481      10574.604      2991.0147      13565.618      65371.759      87120        
    223700   223700         2240.0784      293.62009      10522.766      2938.1327      13460.899      65148.49       87120        
    223800   223800         2241.0459      291.84725      10443.342      2920.3927      13363.734      64800.148      87120        
    223900   223900         2242.0329      294.68107      10470.199      2948.7495      13418.948      64975.018      87120        
    224000   224000         2243.0174      306.02271      10432.03       3062.2405      13494.27       64861.893      87120        
    224100   224100         2243.9748      302.40391      10451.604      3026.0287      13477.632      64839.667      87120        
    224200   224200         2244.9539      296.87452      10475.522      2970.6984      13446.221      64989.53       87120        
    224300   224300         2245.9149      301.31763      10476.188      3015.1587      13491.347      65011.241      87120        
    224400   224400         2246.9023      301.87942      10574.651      3020.7803      13595.431      65333.095      87120        
    224500   224500         2247.8837      306.69126      10522.996      3068.9304      13591.927      65188.927      87120        
    224600   224600         2248.8543      299.7019       10512.861      2998.9908      13511.852      65143.344      87120        
    224700   224700         2249.8423      295.81834      10566.863      2960.1297      13526.993      65268.722      87120        
    224800   224800         2250.8419      303.70345      10493.853      3039.0327      13532.886      65129.516      87120        
    224900   224900         2251.8342      295.69719      10517.248      2958.9173      13476.165      65157.954      87120        
    225000   225000         2252.8243      297.39487      10501.346      2975.9054      13477.252      65135.02       87120        
    225100   225100         2253.8018      307.16728      10516.582      3073.6937      13590.276      65159.715      87120        
    225200   225200         2254.7868      306.96562      10532.636      3071.6758      13604.312      65290.345      87120        
    225300   225300         2255.7835      302.87677      10534.989      3030.7604      13565.75       65304.409      87120        
    225400   225400         2256.7861      299.82279      10536.249      3000.2006      13536.45       65310.492      87120        
    225500   225500         2257.7875      298.17634      10577.595      2983.7253      13561.321      65420.854      87120        
    225600   225600         2258.7878      306.64643      10575.343      3068.4818      13643.825      65487.852      87120        
    225700   225700         2259.7878      307.6513       10588.733      3078.5372      13667.27       65476.604      87120        
    225800   225800         2260.7882      301.08392      10590.073      3012.8201      13602.893      65511.043      87120        
    225900   225900         2261.8001      295.91912      10597.014      2961.1381      13558.152      65474.639      87120        
    226000   226000         2262.8047      297.48978      10559.665      2976.8551      13536.52       65376.489      87120        
    226100   226100         2263.7911      297.31075      10550.665      2975.0636      13525.729      65327.773      87120        
    226200   226200         2264.7831      297.84363      10559.32       2980.396       13539.716      65329.761      87120        
    226300   226300         2265.7916      306.82582      10508.385      3070.2769      13578.662      65209.403      87120        
    226400   226400         2266.7654      303.18749      10507.865      3033.8697      13541.735      65160.473      87120        
    226500   226500         2267.7551      293.64311      10505.943      2938.3631      13444.306      65099.09       87120        
    226600   226600         2268.7338      295.22169      10456.789      2954.1593      13410.948      64883.535      87120        
    226700   226700         2269.7466      303.68794      10491.828      3038.8774      13530.705      64985.335      87120        
    226800   226800         2270.7501      300.10328      10540.646      3003.0073      13543.653      65238.797      87120        
    226900   226900         2271.7344      301.31739      10474.406      3015.1564      13489.562      64974.803      87120        
    227000   227000         2272.7365      295.82503      10503.451      2960.1967      13463.648      65140.636      87120        
    227100   227100         2273.7207      299.64288      10515.566      2998.4003      13513.966      65197.141      87120        
    227200   227200         2274.692       306.41492      10560.357      3066.1652      13626.523      65328.001      87120        
    227300   227300         2275.6962      306.04155      10570.881      3062.429       13633.31       65432.025      87120        
    227400   227400         2276.6918      303.33671      10566.478      3035.3629      13601.841      65439.422      87120        
    227500   227500         2277.6817      299.49466      10551.895      2996.9171      13548.812      65341.075      87120        
    227600   227600         2278.6682      303.50444      10500.106      3037.0412      13537.148      65189.295      87120        
    227700   227700         2279.6887      300.21751      10565.466      3004.1503      13569.616      65365.983      87120        
    227800   227800         2280.6946      304.58061      10590.974      3047.8101      13638.784      65471.496      87120        
    227900   227900         2281.7013      304.103        10548.424      3043.0308      13591.455      65314.533      87120        
    228000   228000         2282.7093      302.56908      10460.549      3027.6815      13488.231      64964.882      87120        
    228100   228100         2283.6891      294.70261      10552.548      2948.965       13501.513      65357.213      87120        
    228200   228200         2284.6621      298.35231      10568.513      2985.4861      13553.999      65413.003      87120        
    228300   228300         2285.6571      303.94926      10551.555      3041.4923      13593.047      65264.237      87120        
    228400   228400         2286.6503      298.79252      10554.04       2989.8911      13543.931      65329.353      87120        
    228500   228500         2287.629       292.61572      10497.432      2928.0824      13425.515      65111.347      87120        
    228600   228600         2288.6088      294.77472      10498.776      2949.6866      13448.462      65061.289      87120        
    228700   228700         2289.6011      304.96732      10443.684      3051.6797      13495.364      64947.644      87120        
    228800   228800         2290.5883      302.57339      10458.879      3027.7246      13486.603      64950.667      87120        
    228900   228900         2291.5769      297.19375      10466.153      2973.8928      13440.046      65007.107      87120        
    229000   229000         2292.5554      293.06611      10516.059      2932.5893      13448.648      65219.476      87120        
    229100   229100         2293.5289      302.58786      10566.152      3027.8694      13594.021      65301.345      87120        
    229200   229200         2294.5173      304.47735      10514.402      3046.7768      13561.178      65172.206      87120        
    229300   229300         2295.5021      298.53915      10487.379      2987.3557      13474.735      65047.518      87120        
    229400   229400         2296.4876      298.55856      10504.047      2987.55        13491.597      65054.756      87120        
    229500   229500         2297.4669      302.40755      10535.366      3026.0651      13561.431      65258.733      87120        
    229600   229600         2298.4573      306.24603      10569.207      3064.4752      13633.683      65450.109      87120        
    229700   229700         2299.4703      306.11526      10542.94       3063.1666      13606.107      65213.132      87120        
    229800   229800         2300.4574      298.11428      10523.372      2983.1042      13506.477      65196.259      87120        
    229900   229900         2301.4495      294.17703      10584.478      2943.7058      13528.184      65434.275      87120        
    230000   230000         2302.4453      308.7103       10509.876      3089.1341      13599.01       65155.349      87120        
    230100   230100         2303.4444      304.14171      10537.35       3043.4181      13580.768      65288.729      87120        
    230200   230200         2304.4334      295.33372      10512.794      2955.2803      13468.075      65160.155      87120        
    230300   230300         2305.4063      295.85454      10493.82       2960.4919      13454.312      65036.805      87120        
    230400   230400         2306.3957      294.25951      10563.901      2944.5312      13508.432      65313.61       87120        
    230500   230500         2307.3746      300.16395      10567.366      3003.6143      13570.98       65394.366      87120        
    230600   230600         2308.3666      301.56974      10558.234      3017.6815      13575.915      65300.978      87120        
    230700   230700         2309.3638      300.13102      10487.097      3003.2848      13490.382      65121.805      87120        
    230800   230800         2310.3616      295.33136      10484.094      2955.2567      13439.351      65055.239      87120        
    230900   230900         2311.3645      300.90091      10514.982      3010.9888      13525.971      65183.3        87120        
    231000   231000         2312.3489      303.49368      10517.534      3036.9336      13554.467      65238.029      87120        
    231100   231100         2313.3146      300.71496      10512.358      3009.1281      13521.486      65211.001      87120        
    231200   231200         2314.3054      297.20168      10462.177      2973.9722      13436.149      64944.018      87120        
    231300   231300         2315.3085      289.55247      10574.912      2897.4297      13472.341      65377.397      87120        
    231400   231400         2316.2948      306.18263      10549.439      3063.8408      13613.28       65404.396      87120        
    231500   231500         2317.294       301.06515      10568.97       3012.6323      13581.602      65347.155      87120        
    231600   231600         2318.2942      298.41506      10527.484      2986.114       13513.598      65255.257      87120        
    231700   231700         2319.2989      297.95613      10503.28       2981.5217      13484.801      65209.076      87120        
    231800   231800         2320.3036      301.85158      10539.369      3020.5018      13559.871      65285.355      87120        
    231900   231900         2321.3114      307.91812      10554.708      3081.207       13635.915      65440.21       87120        
    232000   232000         2322.3332      305.95575      10547.595      3061.5705      13609.166      65397.391      87120        
    232100   232100         2323.3422      299.3334       10555.176      2995.3034      13550.479      65345.937      87120        
    232200   232200         2324.3624      296.58412      10550.498      2967.7926      13518.29       65378.496      87120        
    232300   232300         2325.3742      299.49527      10547.575      2996.9232      13544.498      65346.163      87120        
    232400   232400         2326.3734      302.74032      10603.598      3029.395       13632.993      65507.442      87120        
    232500   232500         2327.3749      309.77538      10572.329      3099.7919      13672.121      65526.171      87120        
    232600   232600         2328.3815      299.30316      10518.29       2995.0009      13513.291      65259.118      87120        
    232700   232700         2329.3851      296.20509      10508.813      2963.9998      13472.813      65189.231      87120        
    232800   232800         2330.3895      300.54148      10480.765      3007.3922      13488.157      65037.147      87120        
    232900   232900         2331.4113      301.68775      10525.463      3018.8624      13544.325      65232.942      87120        
    233000   233000         2332.4137      305.45939      10546.908      3056.6037      13603.511      65342.84       87120        
    233100   233100         2333.4168      299.54872      10564.747      2997.458       13562.205      65357.038      87120        
    233200   233200         2334.4154      295.18873      10549.75       2953.8295      13503.58       65334.338      87120        
    233300   233300         2335.4085      304.10812      10495.401      3043.082       13538.483      65179.474      87120        
    233400   233400         2336.4089      303.7782       10552.056      3039.7806      13591.837      65342.63       87120        
    233500   233500         2337.4137      309.20698      10552.565      3094.1042      13646.669      65392.369      87120        
    233600   233600         2338.4025      296.89098      10569.905      2970.8631      13540.769      65369.127      87120        
    233700   233700         2339.4029      296.2182       10550.302      2964.1309      13514.433      65353.949      87120        
    233800   233800         2340.3937      300.52514      10558.087      3007.2287      13565.316      65383.677      87120        
    233900   233900         2341.4108      304.34984      10556.823      3045.5008      13602.324      65302.625      87120        
    234000   234000         2342.4087      301.38766      10570.782      3015.8596      13586.641      65425.28       87120        
    234100   234100         2343.3918      294.97114      10526.535      2951.6521      13478.187      65218.341      87120        
    234200   234200         2344.3848      297.12049      10491.518      2973.1597      13464.677      65056.932      87120        
    234300   234300         2345.3906      299.55638      10491.26       2997.5347      13488.795      65055.296      87120        
    234400   234400         2346.4112      304.13518      10477.807      3043.3528      13521.159      65060.003      87120        
    234500   234500         2347.4213      298.42909      10529.739      2986.2544      13515.993      65123.046      87120        
    234600   234600         2348.4291      300.74947      10476.462      3009.4734      13485.936      65022.893      87120        
    234700   234700         2349.4236      288.97299      10528.743      2891.6312      13420.374      65130.508      87120        
    234800   234800         2350.4147      293.29672      10550.208      2934.8969      13485.105      65217.663      87120        
    234900   234900         2351.4274      306.42002      10515.729      3066.2163      13581.945      65191.555      87120        
    235000   235000         2352.4326      300.29669      10550.777      3004.9427      13555.719      65223.411      87120        
    235100   235100         2353.4158      299.58183      10498.928      2997.7893      13496.717      65107.062      87120        
    235200   235200         2354.4165      296.41713      10483.684      2966.1216      13449.805      65049.934      87120        
    235300   235300         2355.4241      297.29926      10517.968      2974.9486      13492.916      65095.161      87120        
    235400   235400         2356.4306      298.54261      10548.268      2987.3903      13535.658      65340.085      87120        
    235500   235500         2357.4425      308.47744      10441.031      3086.804       13527.835      64944.168      87120        
    235600   235600         2358.459       291.95477      10581.251      2921.4685      13502.719      65329.197      87120        
    235700   235700         2359.4817      300.50222      10534.019      3006.9993      13541.018      65304.359      87120        
    235800   235800         2360.5201      300.91631      10537.482      3011.1429      13548.625      65326.775      87120        
    235900   235900         2361.5378      290.38141      10584.786      2905.7246      13490.51       65468.312      87120        
    236000   236000         2362.5482      295.87173      10577.057      2960.6639      13537.721      65437.567      87120        
    236100   236100         2363.529       310.55007      10506.439      3107.5439      13613.983      65251.091      87120        
    236200   236200         2364.5252      307.85101      10498.162      3080.5355      13578.698      65210.865      87120        
    236300   236300         2365.5238      299.89384      10544.024      3000.9115      13544.936      65396.283      87120        
    236400   236400         2366.5069      300.05389      10555.287      3002.5131      13557.8        65416.867      87120        
    236500   236500         2367.5203      303.51578      10571.632      3037.1547      13608.787      65442.297      87120        
    236600   236600         2368.532       303.06128      10604.058      3032.6067      13636.665      65556.298      87120        
    236700   236700         2369.529       294.89697      10576.881      2950.91        13527.791      65483.242      87120        
    236800   236800         2370.5301      293.76617      10508.983      2939.5944      13448.578      65161.75       87120        
    236900   236900         2371.5246      294.71802      10543.421      2949.1192      13492.54       65269.318      87120        
    237000   237000         2372.5092      309.05877      10445.395      3092.6211      13538.017      64968.54       87120        
    237100   237100         2373.5042      296.38958      10488.949      2965.8459      13454.795      65005.646      87120        
    237200   237200         2374.4959      294.31089      10462.679      2945.0453      13407.724      64977.908      87120        
    237300   237300         2375.4905      300.70818      10448.424      3009.0603      13457.484      64937.475      87120        
    237400   237400         2376.4807      297.7925       10503.676      2979.8843      13483.56       65012.9        87120        
    237500   237500         2377.4725      300.21214      10480.194      3004.0966      13484.29       65051.504      87120        
    237600   237600         2378.4539      302.07168      10467.28       3022.7043      13489.985      64995.11       87120        
    237700   237700         2379.4479      298.46846      10529.012      2986.6483      13515.66       65152.375      87120        
    237800   237800         2380.4344      307.57796      10518.934      3077.8033      13596.737      65198.885      87120        
    237900   237900         2381.4357      305.36204      10480.114      3055.6294      13535.743      65074.801      87120        
    238000   238000         2382.4336      293.8282       10515.998      2940.2152      13456.213      65161.443      87120        
    238100   238100         2383.4142      300.13501      10460.51       3003.3248      13463.835      64997.264      87120        
    238200   238200         2384.4179      303.49374      10493.763      3036.9342      13530.697      65143.693      87120        
    238300   238300         2385.4124      304.19462      10571.126      3043.9476      13615.073      65440.354      87120        
    238400   238400         2386.4065      302.29697      10589.635      3024.9586      13614.593      65488.384      87120        
    238500   238500         2387.3874      294.33552      10563.234      2945.2917      13508.526      65376.889      87120        
    238600   238600         2388.3882      293.13976      10572.944      2933.3263      13506.271      65412.991      87120        
    238700   238700         2389.3811      301.26708      10548.23       3014.653       13562.883      65350.308      87120        
    238800   238800         2390.3737      299.77106      10569.92       2999.6829      13569.603      65411.808      87120        
    238900   238900         2391.3808      301.04098      10449.872      3012.3904      13462.262      65008.192      87120        
    239000   239000         2392.3744      292.12574      10480.418      2923.1794      13403.597      65019.411      87120        
    239100   239100         2393.377       298.05457      10511.694      2982.5067      13494.201      65130.674      87120        
    239200   239200         2394.3652      299.41462      10522.374      2996.1162      13518.49       65182.339      87120        
    239300   239300         2395.3587      307.31737      10455.535      3075.1956      13530.731      64975.595      87120        
    239400   239400         2396.3474      299.69997      10477.202      2998.9715      13476.174      65042.961      87120        
    239500   239500         2397.3219      290.75952      10483.071      2909.5082      13392.579      65052.948      87120        
    239600   239600         2398.3129      294.59143      10494.149      2947.8526      13442.001      65085.36       87120        
    239700   239700         2399.3023      297.63201      10528.808      2978.2783      13507.086      65213.165      87120        
    239800   239800         2400.2955      302.84748      10536.542      3030.4673      13567.01       65293.545      87120        
    239900   239900         2401.2774      299.77678      10556.722      2999.7402      13556.462      65325.142      87120        
    240000   240000         2402.2739      299.31219      10486.708      2995.0912      13481.799      65099.812      87120        
    240100   240100         2403.2584      290.63306      10497.555      2908.2428      13405.798      65098.431      87120        
    240200   240200         2404.2413      298.47507      10496.053      2986.7145      13482.767      65141.386      87120        
    240300   240300         2405.2353      299.21176      10531.361      2994.0862      13525.447      65267.498      87120        
    240400   240400         2406.2288      301.30484      10518.65       3015.0308      13533.68       65254.426      87120        
    240500   240500         2407.2097      303.76742      10524.43       3039.6727      13564.103      65264.544      87120        
    240600   240600         2408.2158      303.9716       10581.621      3041.7159      13623.337      65452.31       87120        
    240700   240700         2409.222       301.91433      10562.098      3021.1297      13583.228      65413.359      87120        
    240800   240800         2410.2164      294.04991      10556.868      2942.4337      13499.302      65361.657      87120        
    240900   240900         2411.2227      294.91355      10574.622      2951.0758      13525.697      65466.207      87120        
    241000   241000         2412.211       303.82561      10561.25       3040.2551      13601.505      65452.343      87120        
    241100   241100         2413.1923      296.12556      10626.802      2963.2039      13590.006      65594.958      87120        
    241200   241200         2414.1722      297.69502      10576.571      2978.9088      13555.48       65470.44       87120        
    241300   241300         2415.1676      297.64066      10521.064      2978.3649      13499.429      65231.62       87120        
    241400   241400         2416.1615      298.24806      10519.952      2984.4429      13504.395      65177.882      87120        
    241500   241500         2417.1542      311.09197      10507.179      3112.9665      13620.145      65178.365      87120        
    241600   241600         2418.1434      300.72125      10555.059      3009.1911      13564.251      65257.739      87120        
    241700   241700         2419.1303      295.35945      10504.463      2955.5378      13460.001      65065.049      87120        
    241800   241800         2420.1203      293.66497      10501.217      2938.5818      13439.799      65066.835      87120        
    241900   241900         2421.108       299.33767      10482.124      2995.3461      13477.47       65002.576      87120        
    242000   242000         2422.0833      307.11543      10482.27       3073.1749      13555.445      65014.576      87120        
    242100   242100         2423.0554      297.35342      10516.477      2975.4906      13491.967      65115.948      87120        
    242200   242200         2424.0323      293.10521      10467.356      2932.9805      13400.337      64932.732      87120        
    242300   242300         2425.0078      296.49997      10488.813      2966.9505      13455.763      65050.647      87120        
    242400   242400         2425.9898      303.03028      10489.477      3032.2965      13521.773      65084.987      87120        
    242500   242500         2426.9735      298.86322      10548.392      2990.5986      13538.991      65273.36       87120        
    242600   242600         2427.9514      300.43585      10523.429      3006.3352      13529.764      65173.369      87120        
    242700   242700         2428.9476      294.56391      10497.31       2947.5771      13444.887      65105.909      87120        
    242800   242800         2429.949       293.90002      10531.301      2940.9339      13472.235      65241.564      87120        
    242900   242900         2430.9372      301.28964      10558.948      3014.8787      13573.827      65411.082      87120        
    243000   243000         2431.944       301.03458      10614.145      3012.3264      13626.472      65644.068      87120        
    243100   243100         2432.9416      306.68475      10595.202      3068.8653      13664.068      65651.806      87120        
    243200   243200         2433.9301      298.63163      10638.212      2988.2811      13626.493      65720.372      87120        
    243300   243300         2434.933       287.88401      10668.518      2880.7342      13549.252      65837.411      87120        
    243400   243400         2435.9393      296.404        10647.654      2965.9902      13613.644      65776.064      87120        
    243500   243500         2436.9276      298.90713      10683.825      2991.0379      13674.863      65862.086      87120        
    243600   243600         2437.9418      307.63808      10587.095      3078.4048      13665.5        65559.319      87120        
    243700   243700         2438.9237      300.68053      10581.705      3008.7836      13590.489      65466.765      87120        
    243800   243800         2439.9406      297.28216      10494.798      2974.7775      13469.576      65111.251      87120        
    243900   243900         2440.9366      294.7353       10501.492      2949.2922      13450.784      65129.138      87120        
    244000   244000         2441.9309      303.45368      10480.067      3036.5334      13516.601      65044.293      87120        
    244100   244100         2442.9121      305.53108      10500.704      3057.321       13558.025      65071.263      87120        
    244200   244200         2443.9005      299.9744       10473.412      3001.7176      13475.129      64999.361      87120        
    244300   244300         2444.8798      291.54657      10517.247      2917.3839      13434.631      65079.685      87120        
    244400   244400         2445.837       306.03207      10439.6        3062.3342      13501.934      64873.893      87120        
    244500   244500         2446.8119      297.78244      10495.317      2979.7836      13475.101      65028.405      87120        
    244600   244600         2447.7787      290.64713      10457.682      2908.3836      13366.066      64927.294      87120        
    244700   244700         2448.7606      293.18433      10430.743      2933.7722      13364.515      64792.502      87120        
    244800   244800         2449.7306      294.51814      10477.588      2947.1191      13424.707      64941.663      87120        
    244900   244900         2450.7261      303.6093       10454.612      3038.0905      13492.702      64889.631      87120        
    245000   245000         2451.7195      304.1619       10468.667      3043.6202      13512.287      64989.039      87120        
    245100   245100         2452.6848      298.843        10488.631      2990.3962      13479.027      65046.118      87120        
    245200   245200         2453.6725      293.32442      10524.284      2935.1741      13459.458      65259.636      87120        
    245300   245300         2454.6525      300.64491      10508.464      3008.4271      13516.891      65211.063      87120        
    245400   245400         2455.6578      299.56366      10574.984      2997.6076      13572.592      65427.611      87120        
    245500   245500         2456.6517      300.24695      10595.293      3004.445       13599.738      65554.285      87120        
    245600   245600         2457.672       293.53512      10635.666      2937.2824      13572.948      65691.583      87120        
    245700   245700         2458.6751      295.69093      10551.98       2958.8548      13510.835      65403.018      87120        
    245800   245800         2459.6909      288.86244      10604.04       2890.5249      13494.565      65604.068      87120        
    245900   245900         2460.6922      301.80667      10592.671      3020.0524      13612.723      65594.078      87120        
    246000   246000         2461.707       298.28437      10650.302      2984.8062      13635.108      65745.261      87120        
    246100   246100         2462.7075      307.26997      10516.001      3074.7213      13590.722      65267.52       87120        
    246200   246200         2463.7011      300.39222      10497.313      3005.8986      13503.211      65201.6        87120        
    246300   246300         2464.7148      292.01642      10557.806      2922.0855      13479.891      65395.24       87120        
    246400   246400         2465.7171      299.18807      10546.695      2993.8491      13540.544      65304.591      87120        
    246500   246500         2466.7218      304.45362      10523.575      3046.5393      13570.115      65251.814      87120        
    246600   246600         2467.7154      299.84253      10505.856      3000.3981      13506.255      65162.715      87120        
    246700   246700         2468.7047      297.32497      10506.696      2975.2059      13481.901      65070.605      87120        
    246800   246800         2469.6922      304.90898      10455.223      3051.0959      13506.319      64962.131      87120        
    246900   246900         2470.6818      305.40449      10495.653      3056.0543      13551.708      65098.333      87120        
    247000   247000         2471.6562      301.95216      10448.598      3021.5082      13470.106      64832.955      87120        
    247100   247100         2472.6444      294.81141      10413.127      2950.0537      13363.181      64704.149      87120        
    247200   247200         2473.624       296.99578      10429.516      2971.9119      13401.428      64808.703      87120        
    247300   247300         2474.5787      301.65903      10448.373      3018.575       13466.948      64842.614      87120        
    247400   247400         2475.5488      304.49688      10454.075      3046.9721      13501.047      64858.163      87120        
    247500   247500         2476.5264      294.44986      10538.246      2946.4359      13484.682      65136.444      87120        
    247600   247600         2477.4896      294.53213      10493.437      2947.2592      13440.696      65002.86       87120        
    247700   247700         2478.4679      294.34146      10439.628      2945.3512      13384.979      64859.367      87120        
    247800   247800         2479.437       295.97526      10468.374      2961.6999      13430.074      64903.066      87120        
    247900   247900         2480.4069      303.33047      10483.743      3035.3004      13519.043      64990.07       87120        
    248000   248000         2481.3939      303.51378      10474.021      3037.1348      13511.155      64944.69       87120        
    248100   248100         2482.3639      294.49619      10527.257      2946.8995      13474.157      65170.033      87120        
    248200   248200         2483.3464      296.03274      10552.15       2962.2751      13514.425      65252.885      87120        
    248300   248300         2484.3302      308.45932      10513.22       3086.6226      13599.842      65169.907      87120        
    248400   248400         2485.3212      303.71389      10565.528      3039.1372      13604.665      65414.624      87120        
    248500   248500         2486.3203      293.4446       10561.108      2936.3766      13497.485      65363.186      87120        
    248600   248600         2487.3105      299.90987      10551.312      3001.0719      13552.384      65347.171      87120        
    248700   248700         2488.3124      302.34965      10585.833      3025.4858      13611.319      65500.14       87120        
    248800   248800         2489.3102      300.80301      10539.696      3010.0091      13549.705      65245.777      87120        
    248900   248900         2490.2964      295.02739      10547.721      2952.2149      13499.935      65368.983      87120        
    249000   249000         2491.292       296.4952       10599.565      2966.9027      13566.467      65536.267      87120        
    249100   249100         2492.2612      304.39898      10554.551      3045.9926      13600.544      65406.607      87120        
    249200   249200         2493.2783      302.8319       10568.825      3030.3114      13599.136      65433.406      87120        
    249300   249300         2494.2747      301.02032      10564.38       3012.1837      13576.563      65367.622      87120        
    249400   249400         2495.2624      295.73869      10555.226      2959.3327      13514.559      65396.707      87120        
    249500   249500         2496.2538      296.63481      10541.813      2968.2998      13510.112      65330.189      87120        
    249600   249600         2497.2547      299.75417      10545.402      2999.5138      13544.916      65252.921      87120        
    249700   249700         2498.2494      299.51071      10527.701      2997.0777      13524.778      65274.331      87120        
    249800   249800         2499.2421      303.11863      10485.172      3033.1806      13518.352      65102.047      87120        
    249900   249900         2500.2413      298.36913      10485.194      2985.6544      13470.848      65011.591      87120        
    250000   250000         2501.2212      289.17766      10518.455      2893.6792      13412.134      65117.809      87120        
    250100   250100         2502.211       301.6835       10506.732      3018.8199      13525.552      65120.562      87120        
    250200   250200         2503.2098      307.84938      10474.57       3080.5192      13555.089      64985.552      87120        
    250300   250300         2504.1945      297.93737      10498.132      2981.3339      13479.465      65099.847      87120        
    250400   250400         2505.18        298.37981      10479.825      2985.7613      13465.587      65012.365      87120        
    250500   250500         2506.155       299.12843      10494.401      2993.2524      13487.653      65047.263      87120        
    250600   250600         2507.1509      307.84959      10475.87       3080.5214      13556.392      65085.501      87120        
    250700   250700         2508.1487      304.27311      10527.289      3044.733       13572.022      65260.201      87120        
    250800   250800         2509.1482      297.59918      10524.268      2977.9498      13502.218      65237.482      87120        
    250900   250900         2510.1391      299.67349      10497.768      2998.7066      13496.474      65215.64       87120        
    251000   251000         2511.1513      300.5092       10567.72       3007.0692      13574.789      65380.815      87120        
    251100   251100         2512.1295      307.28766      10619.359      3074.8983      13694.257      65653.811      87120        
    251200   251200         2513.1274      302.11989      10622.525      3023.1867      13645.712      65617.679      87120        
    251300   251300         2514.1127      302.79568      10556.03       3029.949       13585.979      65350.631      87120        
    251400   251400         2515.1094      301.71014      10508.23       3019.0865      13527.316      65217.858      87120        
    251500   251500         2516.1034      296.03177      10544.277      2962.2654      13506.543      65379.79       87120        
    251600   251600         2517.0903      298.73475      10570.152      2989.313       13559.465      65445.95       87120        
    251700   251700         2518.0978      306.57862      10594.207      3067.8033      13662.01       65594.33       87120        
    251800   251800         2519.121       303.86484      10600.322      3040.6477      13640.97       65623.17       87120        
    251900   251900         2520.14        294.12225      10592.781      2943.1577      13535.939      65524.976      87120        
    252000   252000         2521.1557      292.3407       10585.494      2925.3304      13510.825      65468.179      87120        
    252100   252100         2522.1466      301.70119      10540.174      3018.9969      13559.171      65370.255      87120        
    252200   252200         2523.1443      302.14298      10552.117      3023.4177      13575.535      65297.358      87120        
    252300   252300         2524.1385      306.18181      10497.924      3063.8326      13561.757      65187.01       87120        
    252400   252400         2525.1149      298.01169      10502.996      2982.0776      13485.073      65134.242      87120        
    252500   252500         2526.1047      293.37239      10471.009      2935.6541      13406.663      64966.641      87120        
    252600   252600         2527.083       297.35018      10487.332      2975.4582      13462.79       65109.484      87120        
    252700   252700         2528.0751      302.23089      10475.45       3024.2973      13499.748      65030.566      87120        
    252800   252800         2529.081       298.99566      10478.47       2991.9238      13470.393      65002.309      87120        
    252900   252900         2530.057       302.39715      10471.766      3025.9611      13497.727      65086.893      87120        
    253000   253000         2531.0524      303.81493      10500.843      3040.1482      13540.992      65081.881      87120        
    253100   253100         2532.0325      306.01203      10483.853      3062.1337      13545.987      65062.153      87120        
    253200   253200         2533.0172      293.59753      10531.583      2937.9069      13469.49       65209.449      87120        
    253300   253300         2534.0145      295.949        10491.438      2961.4371      13452.875      65057.01       87120        
    253400   253400         2535.0185      302.60865      10502.593      3028.0774      13530.67       65147.049      87120        
    253500   253500         2536.0242      303.58063      10575.141      3037.8036      13612.945      65444.497      87120        
    253600   253600         2537.0433      299.65905      10585.627      2998.5621      13584.189      65486.788      87120        
    253700   253700         2538.0485      297.81824      10551.628      2980.1419      13531.77       65422.271      87120        
    253800   253800         2539.0559      296.64858      10592.706      2968.4375      13561.143      65556.853      87120        
    253900   253900         2540.0747      305.20932      10583.545      3054.1013      13637.646      65467.635      87120        
    254000   254000         2541.0867      305.47502      10563.679      3056.76        13620.439      65467.597      87120        
    254100   254100         2542.0761      293.1553       10574.256      2933.4818      13507.738      65459.574      87120        
    254200   254200         2543.0728      298.86675      10491.071      2990.6338      13481.704      65153.436      87120        
    254300   254300         2544.0706      299.14866      10530.37       2993.4548      13523.825      65315.186      87120        
    254400   254400         2545.0633      304.18728      10549.643      3043.8741      13593.517      65420.066      87120        
    254500   254500         2546.0837      302.89973      10582.869      3030.9902      13613.86       65522.653      87120        
    254600   254600         2547.1155      296.53562      10577.586      2967.3072      13544.893      65468.489      87120        
    254700   254700         2548.1323      295.62266      10497.675      2958.1716      13455.847      65214.791      87120        
    254800   254800         2549.1531      301.35496      10500.739      3015.5324      13516.271      65195.665      87120        
    254900   254900         2550.1706      307.12038      10506.738      3073.2244      13579.962      65264.637      87120        
    255000   255000         2551.1642      299.09994      10552.018      2992.9673      13544.985      65412.372      87120        
    255100   255100         2552.1758      299.01766      10519.405      2992.144       13511.549      65248.034      87120        
    255200   255200         2553.1738      304.78931      10505.092      3049.8985      13554.99       65202.316      87120        
    255300   255300         2554.1764      311.05028      10505.166      3112.5493      13617.716      65210.625      87120        
    255400   255400         2555.1644      293.66575      10564.855      2938.5896      13503.445      65391.554      87120        
    255500   255500         2556.1557      299.97837      10505.161      3001.7573      13506.918      65205.968      87120        
    255600   255600         2557.1549      295.37003      10598.3        2955.6437      13553.943      65476.822      87120        
    255700   255700         2558.1578      306.83629      10519.476      3070.3817      13589.858      65263.452      87120        
    255800   255800         2559.1626      303.1853       10508.661      3033.8478      13542.509      65191.429      87120        
    255900   255900         2560.1773      298.13174      10461.01       2983.2789      13444.288      64994.035      87120        
    256000   256000         2561.1589      292.32228      10496.359      2925.1461      13421.505      65059.515      87120        
    256100   256100         2562.1316      299.08185      10470.601      2992.7863      13463.388      64981.758      87120        
    256200   256200         2563.1197      299.53333      10497.323      2997.3041      13494.627      65066.428      87120        
    256300   256300         2564.1267      302.05946      10511.306      3022.582       13533.888      65207.856      87120        
    256400   256400         2565.1179      301.33398      10527.671      3015.3224      13542.994      65290.793      87120        
    256500   256500         2566.093       292.50742      10539.959      2926.9987      13466.958      65316.731      87120        
    256600   256600         2567.0894      296.31176      10523.478      2965.0671      13488.545      65270.791      87120        
    256700   256700         2568.0909      300.95074      10522.36       3011.4874      13533.847      65291.88       87120        
    256800   256800         2569.083       298.29382      10567.245      2984.9008      13552.146      65427.388      87120        
    256900   256900         2570.0724      300.76465      10550.054      3009.6253      13559.68       65436.726      87120        
    257000   257000         2571.0722      302.06878      10568.08       3022.6753      13590.755      65436.272      87120        
    257100   257100         2572.0541      307.23817      10602.585      3074.4031      13676.988      65570.988      87120        
    257200   257200         2573.0527      299.26668      10622.292      2994.6358      13616.928      65682.29       87120        
    257300   257300         2574.053       298.4214       10588.272      2986.1774      13574.45       65589.209      87120        
    257400   257400         2575.0477      301.41799      10544.418      3016.163       13560.581      65340.646      87120        
    257500   257500         2576.0705      304.61135      10565.727      3048.1176      13613.844      65522.226      87120        
    257600   257600         2577.0866      313.70948      10561.203      3139.1588      13700.362      65478.111      87120        
    257700   257700         2578.1037      303.47103      10579.04       3036.7069      13615.747      65430.908      87120        
    257800   257800         2579.1131      290.05509      10643.321      2902.4593      13545.78       65690.689      87120        
    257900   257900         2580.136       301.54875      10558.96       3017.4715      13576.432      65320.235      87120        
    258000   258000         2581.1521      302.92965      10546.821      3031.2896      13578.111      65357.319      87120        
    258100   258100         2582.136       290.33485      10516.957      2905.2587      13422.216      65194.19       87120        
    258200   258200         2583.1341      295.10276      10450.807      2952.9691      13403.776      64929.171      87120        
    258300   258300         2584.155       293.73387      10531.086      2939.2712      13470.358      65227.739      87120        
    258400   258400         2585.1575      298.7472       10508.147      2989.4376      13497.585      65135.111      87120        
    258500   258500         2586.1603      300.25817      10501.873      3004.5572      13506.43       65137.717      87120        
    258600   258600         2587.1783      298.29937      10486.572      2984.9563      13471.529      65011.253      87120        
    258700   258700         2588.1788      289.06639      10503.558      2892.5658      13396.124      65084.789      87120        
    258800   258800         2589.197       297.26004      10446.121      2974.5562      13420.678      64920.097      87120        
    258900   258900         2590.2009      307.24005      10430.211      3074.4219      13504.633      64867.514      87120        
    259000   259000         2591.2118      300.07138      10525.012      3002.6881      13527.7        65115.956      87120        
    259100   259100         2592.2265      302.24033      10466.216      3024.3918      13490.608      64984.936      87120        
    259200   259200         2593.2293      296.96552      10489.221      2971.609       13460.83       65071.746      87120        
    259300   259300         2594.2219      294.43012      10532.709      2946.2384      13478.947      65185.788      87120        
    259400   259400         2595.2286      304.38426      10489.947      3045.8453      13535.792      65072.723      87120        
    259500   259500         2596.2387      308.84681      10460.436      3090.5001      13550.936      64996.841      87120        
    259600   259600         2597.2713      299.36969      10519.445      2995.6666      13515.111      65184.988      87120        
    259700   259700         2598.2726      302.96759      10482.797      3031.6692      13514.466      65041.264      87120        
    259800   259800         2599.2789      300.26528      10510.837      3004.6283      13515.465      65204.898      87120        
    259900   259900         2600.2856      295.88703      10571.799      2960.817       13532.616      65445.854      87120        
    260000   260000         2601.3165      303.44885      10588.367      3036.485       13624.852      65539.285      87120        
    260100   260100         2602.315       304.08033      10630.121      3042.8039      13672.925      65692.861      87120        
    260200   260200         2603.3071      297.97964      10578.22       2981.7569      13559.977      65546.596      87120        
    260300   260300         2604.3227      293.28926      10607.764      2934.8223      13542.586      65585.205      87120        
    260400   260400         2605.3347      300.32741      10580.53       3005.25        13585.78       65543.809      87120        
    260500   260500         2606.3388      296.63445      10627.792      2968.2962      13596.089      65673.689      87120        
    260600   260600         2607.36        306.45381      10560.702      3066.5543      13627.257      65420.572      87120        
    260700   260700         2608.3783      304.52193      10559.799      3047.2228      13607.022      65452.199      87120        
    260800   260800         2609.3988      292.51285      10536.737      2927.053       13463.79       65289.54       87120        
    260900   260900         2610.4164      291.84747      10527.007      2920.3949      13447.402      65231.109      87120        
    261000   261000         2611.4335      302.33589      10503.36       3025.3481      13528.708      65221.703      87120        
    261100   261100         2612.4222      300.96613      10530.146      3011.6414      13541.788      65296.409      87120        
    261200   261200         2613.4128      302.74081      10517.973      3029.4         13547.373      65250.384      87120        
    261300   261300         2614.4065      294.3822       10523.359      2945.7588      13469.118      65124.562      87120        
    261400   261400         2615.3935      287.94905      10511.871      2881.385       13393.256      65163.095      87120        
    261500   261500         2616.3761      295.79838      10536.307      2959.9299      13496.237      65236.368      87120        
    261600   261600         2617.3617      302.12945      10504.698      3023.2823      13527.98       65110.13       87120        
    261700   261700         2618.3256      296.70878      10500.13       2969.0399      13469.17       65091.689      87120        
    261800   261800         2619.3075      299.9683       10429.537      3001.6566      13431.194      64874.317      87120        
    261900   261900         2620.2935      296.49841      10499.82       2966.9349      13466.755      65049.145      87120        
    262000   262000         2621.2789      302.68154      10558.748      3028.8069      13587.555      65370.765      87120        
    262100   262100         2622.2646      308.49252      10518.795      3086.9549      13605.75       65258.52       87120        
    262200   262200         2623.2565      300.45498      10540.215      3006.5266      13546.742      65233.28       87120        
    262300   262300         2624.248       301.91117      10529.115      3021.098       13550.213      65255.899      87120        
    262400   262400         2625.2445      300.01216      10557.781      3002.0954      13559.876      65380.838      87120        
    262500   262500         2626.2392      301.13876      10620.011      3013.3689      13633.38       65563.894      87120        
    262600   262600         2627.2324      307.92019      10631.136      3081.2278      13712.364      65656.799      87120        
    262700   262700         2628.2196      302.83941      10599.557      3030.3866      13629.943      65560.2        87120        
    262800   262800         2629.2262      298.49587      10584.006      2986.9226      13570.928      65429.051      87120        
    262900   262900         2630.2375      301.37944      10538.354      3015.7772      13554.132      65311.177      87120        
    263000   263000         2631.2418      299.0691       10538.942      2992.6587      13531.6        65344.223      87120        
    263100   263100         2632.2306      298.67489      10489.345      2988.714       13478.059      65094.562      87120        
    263200   263200         2633.2047      294.94837      10513.708      2951.4243      13465.132      65198.547      87120        
    263300   263300         2634.1916      304.39614      10520.95       3045.9641      13566.914      65238.345      87120        
    263400   263400         2635.1834      300.51484      10558.407      3007.1256      13565.532      65282.918      87120        
    263500   263500         2636.1793      304.72441      10463.178      3049.2489      13512.427      64975.243      87120        
    263600   263600         2637.1863      294.76119      10473.954      2949.5512      13423.506      64968.315      87120        
    263700   263700         2638.1897      291.10556      10500.134      2912.9709      13413.105      65005.666      87120        
    263800   263800         2639.2         303.85954      10486.051      3040.5946      13526.645      65031.814      87120        
    263900   263900         2640.1974      303.33167      10474.693      3035.3125      13510.005      64970.359      87120        
    264000   264000         2641.1682      299.8796       10459.812      3000.769       13460.581      64955.012      87120        
    264100   264100         2642.134       291.17894      10512.404      2913.7051      13426.109      65058.239      87120        
    264200   264200         2643.1181      305.66968      10460.405      3058.7079      13519.113      64932.173      87120        
    264300   264300         2644.0905      300.98237      10532.279      3011.804       13544.083      65122.648      87120        
    264400   264400         2645.0751      304.07901      10470.918      3042.7908      13513.709      64985.961      87120        
    264500   264500         2646.059       296.59865      10529.343      2967.9379      13497.281      65228.661      87120        
    264600   264600         2647.05        300.14573      10499.836      3003.4321      13503.268      65114.356      87120        
    264700   264700         2648.0554      291.59809      10562.609      2917.8994      13480.509      65281.017      87120        
    264800   264800         2649.0552      291.61482      10538.816      2918.0669      13456.883      65269.831      87120        
    264900   264900         2650.0385      302.8148       10517.557      3030.1404      13547.697      65173.765      87120        
    265000   265000         2651.0436      306.37748      10539.551      3065.7905      13605.341      65271.978      87120        
    265100   265100         2652.0429      301.05701      10547.697      3012.5509      13560.248      65337.599      87120        
    265200   265200         2653.0316      301.59858      10512.405      3017.9701      13530.375      65222.626      87120        
    265300   265300         2654.0215      294.68558      10570.485      2948.7946      13519.279      65410.999      87120        
    265400   265400         2655.0279      295.53319      10572.45       2957.2763      13529.726      65415.178      87120        
    265500   265500         2656.0398      303.69971      10583.152      3038.9952      13622.147      65512.136      87120        
    265600   265600         2657.0672      300.4504       10647.079      3006.4808      13653.56       65696.276      87120        
    265700   265700         2658.0816      300.39405      10594.538      3005.9169      13600.455      65504.689      87120        
    265800   265800         2659.0903      292.1266       10572.19       2923.188       13495.378      65360.759      87120        
    265900   265900         2660.0916      293.37343      10548.49       2935.6645      13484.155      65272.224      87120        
    266000   266000         2661.0923      303.03381      10512.962      3032.3319      13545.294      65206.018      87120        
    266100   266100         2662.079       299.59607      10547.902      2997.9319      13545.834      65297.577      87120        
    266200   266200         2663.065       301.5655       10518.517      3017.6391      13536.156      65185.167      87120        
    266300   266300         2664.0399      302.02312      10526.022      3022.2183      13548.241      65243.728      87120        
    266400   266400         2665.0216      295.89958      10555.913      2960.9426      13516.856      65238.942      87120        
    266500   266500         2666.0172      300.5189       10521.922      3007.1662      13529.089      65196.249      87120        
    266600   266600         2667.0191      307.4166       10469.145      3076.1886      13545.334      65016.116      87120        
    266700   266700         2668.012       298.3324       10509.281      2985.2869      13494.568      65042.531      87120        
    266800   266800         2668.984       292.46797      10485.009      2926.604       13411.613      65040.4        87120        
    266900   266900         2669.9719      299.23881      10421.034      2994.3569      13415.391      64749.307      87120        
    267000   267000         2670.9737      301.71962      10496.733      3019.1813      13515.914      65038.314      87120        
    267100   267100         2671.9523      301.17402      10524.51       3013.7218      13538.232      65179.411      87120        
    267200   267200         2672.9418      297.73045      10526.109      2979.2634      13505.373      65156.696      87120        
    267300   267300         2673.9384      296.46335      10522.243      2966.584       13488.827      65133.503      87120        
    267400   267400         2674.9295      300.28406      10504.04       3004.8163      13508.856      65133.006      87120        
    267500   267500         2675.9196      305.23077      10531.176      3054.3159      13585.492      65280.835      87120        
    267600   267600         2676.9196      305.39978      10584.066      3056.0071      13640.073      65463.554      87120        
    267700   267700         2677.9193      301.53422      10529.446      3017.3261      13546.772      65279.776      87120        
    267800   267800         2678.9105      301.21236      10509.911      3014.1054      13524.016      65200.992      87120        
    267900   267900         2679.9173      302.14636      10515.635      3023.4515      13539.086      65207.124      87120        
    268000   268000         2680.9239      304.47127      10523.764      3046.7159      13570.48       65261.839      87120        
    268100   268100         2681.9135      302.07282      10558.516      3022.7157      13581.231      65337.104      87120        
    268200   268200         2682.914       301.12015      10529.507      3013.1827      13542.689      65264.729      87120        
    268300   268300         2683.8947      298.26105      10499.589      2984.5729      13484.162      65127.741      87120        
    268400   268400         2684.8929      297.03543      10519.879      2972.3086      13492.188      65186.326      87120        
    268500   268500         2685.8887      301.44668      10514.179      3016.4501      13530.629      65174.956      87120        
    268600   268600         2686.877       307.29945      10453.882      3075.0163      13528.898      64939.984      87120        
    268700   268700         2687.8661      287.45096      10539.807      2876.4008      13416.207      65203.138      87120        
    268800   268800         2688.8452      290.36519      10511.997      2905.5623      13417.559      65158.091      87120        
    268900   268900         2689.8434      300.52546      10469.32       3007.2318      13476.552      64968.288      87120        
    269000   269000         2690.8454      304.29404      10474.06       3044.9425      13519.002      65016.498      87120        
    269100   269100         2691.8028      301.98707      10463.446      3021.8575      13485.304      64954.215      87120        
    269200   269200         2692.7762      295.36862      10482.769      2955.6295      13438.398      64957.241      87120        
    269300   269300         2693.7506      291.13386      10532.853      2913.2541      13446.107      65221.025      87120        
    269400   269400         2694.7198      300.46914      10581.66       3006.6683      13588.328      65417.975      87120        
    269500   269500         2695.7275      308.78174      10562.183      3089.849       13652.032      65389.143      87120        
    269600   269600         2696.747       301.92111      10563.468      3021.1976      13584.665      65417.565      87120        
    269700   269700         2697.7688      305.12634      10523.806      3053.271       13577.077      65305.842      87120        
    269800   269800         2698.7788      297.64807      10600.008      2978.439       13578.447      65588.994      87120        
    269900   269900         2699.769       300.48854      10599.818      3006.8624      13606.681      65555.881      87120        
    270000   270000         2700.7812      305.62295      10646.768      3058.2403      13705.009      65736.499      87120        
    270100   270100         2701.7725      303.06088      10641.254      3032.6027      13673.857      65675.759      87120        
    270200   270200         2702.7627      302.89915      10595.79       3030.9844      13626.775      65618.587      87120        
    270300   270300         2703.7767      296.17627      10651.943      2963.7114      13615.654      65734.498      87120        
    270400   270400         2704.7944      297.79696      10613.028      2979.9289      13592.957      65576.845      87120        
    270500   270500         2705.8095      301.60397      10578.862      3018.0241      13596.886      65516.318      87120        
    270600   270600         2706.8087      306.08326      10578.596      3062.8464      13641.443      65476.715      87120        
    270700   270700         2707.8152      305.61116      10546.627      3058.1223      13604.749      65308.586      87120        
    270800   270800         2708.8041      302.53884      10406.403      3027.3789      13433.782      64800.557      87120        
    270900   270900         2709.7703      291.37611      10456.75       2915.6781      13372.429      64906.372      87120        
    271000   271000         2710.7418      297.53357      10466.686      2977.2932      13443.979      64873.344      87120        
    271100   271100         2711.7206      301.15069      10442.943      3013.4883      13456.431      64793.915      87120        
    271200   271200         2712.6918      298.76727      10433.763      2989.6383      13423.401      64799.752      87120        
    271300   271300         2713.6845      298.60197      10401.81       2987.9843      13389.795      64679.135      87120        
    271400   271400         2714.6657      290.53589      10482.838      2907.2705      13390.109      64928.498      87120        
    271500   271500         2715.6547      306.15375      10449.162      3063.5518      13512.714      64826.471      87120        
    271600   271600         2716.6379      302.79744      10474.475      3029.9666      13504.442      64948.724      87120        
    271700   271700         2717.6242      302.26635      10412.456      3024.6522      13437.108      64758.896      87120        
    271800   271800         2718.6207      301.18461      10410.017      3013.8277      13423.845      64759.834      87120        
    271900   271900         2719.6116      299.77523      10439.842      2999.7246      13439.567      64839.553      87120        
    272000   272000         2720.5933      300.38133      10496.001      3005.7896      13501.791      65124.037      87120        
    272100   272100         2721.5898      309.56198      10519.917      3097.6565      13617.573      65253.527      87120        
    272200   272200         2722.5795      301.34584      10605.739      3015.441       13621.18       65510.19       87120        
    272300   272300         2723.5896      300.02745      10557.889      3002.2485      13560.138      65473.64       87120        
    272400   272400         2724.6177      295.02795      10588.694      2952.2206      13540.914      65520.74       87120        
    272500   272500         2725.6492      297.42711      10604.049      2976.228       13580.277      65610.217      87120        
    272600   272600         2726.6691      304.49525      10621.741      3046.9559      13668.697      65742.541      87120        
    272700   272700         2727.6774      307.74604      10557.208      3079.4852      13636.693      65454.552      87120        
    272800   272800         2728.7019      304.30904      10533.575      3045.0925      13578.667      65307.171      87120        
    272900   272900         2729.7202      294.41912      10610.114      2946.1283      13556.242      65646.384      87120        
    273000   273000         2730.7338      301.31903      10597.087      3015.1728      13612.26       65538.079      87120        
    273100   273100         2731.7342      305.08674      10609.828      3052.8746      13662.703      65610.258      87120        
    273200   273200         2732.7283      300.04615      10591.095      3002.4356      13593.531      65545.02       87120        
    273300   273300         2733.725       288.9926       10548.045      2891.8274      13439.872      65305.555      87120        
    273400   273400         2734.7279      289.8895       10495.103      2900.8023      13395.905      65023.774      87120        
    273500   273500         2735.7194      295.62532      10490.895      2958.1982      13449.094      65078.641      87120        
    273600   273600         2736.6918      300.03879      10481.766      3002.3619      13484.128      64990.052      87120        
    273700   273700         2737.6776      302.64407      10492.515      3028.4319      13520.946      64998.08       87120        
    273800   273800         2738.6565      301.64754      10496.499      3018.4601      13514.959      65062.285      87120        
    273900   273900         2739.6245      295.56477      10486.196      2957.5923      13443.788      65001.533      87120        
    274000   274000         2740.6016      292.96015      10471.518      2931.529       13403.047      64896.145      87120        
    274100   274100         2741.5573      297.77743      10507.999      2979.7335      13487.733      65085.335      87120        
    274200   274200         2742.5366      304.09544      10465.215      3042.9551      13508.17       64924.121      87120        
    274300   274300         2743.5128      300.66808      10480.265      3008.659       13488.924      64919.962      87120        
    274400   274400         2744.4919      293.24693      10554.268      2934.3987      13488.666      65167.194      87120        
    274500   274500         2745.4749      309.73186      10471.205      3099.3564      13570.561      64927.539      87120        
    274600   274600         2746.4405      303.72496      10491.657      3039.2479      13530.905      64987.707      87120        
    274700   274700         2747.4296      296.77192      10489.456      2969.6717      13459.128      64973.095      87120        
    274800   274800         2748.4115      302.26742      10494.279      3024.6629      13518.942      65059.665      87120        
    274900   274900         2749.414       306.29176      10511.809      3064.9328      13576.742      65094.612      87120        
    275000   275000         2750.4276      303.84279      10497.402      3040.427       13537.829      65082.573      87120        
    275100   275100         2751.416       298.37438      10491.828      2985.7069      13477.535      65071.608      87120        
    275200   275200         2752.4168      297.12436      10512.187      2973.1985      13485.386      65081.373      87120        
    275300   275300         2753.3999      305.57458      10512.648      3057.7563      13570.404      65173.248      87120        
    275400   275400         2754.3893      305.80259      10551.712      3060.0379      13611.749      65357.807      87120        
    275500   275500         2755.3864      298.79273      10554.428      2989.8932      13544.321      65329.027      87120        
    275600   275600         2756.3954      291.03257      10584.214      2912.2405      13496.454      65424.764      87120        
    275700   275700         2757.4025      306.36452      10521.887      3065.6608      13587.548      65347.654      87120        
    275800   275800         2758.4101      299.26912      10611.463      2994.6602      13606.124      65513.429      87120        
    275900   275900         2759.4145      299.3051       10578.4        2995.0202      13573.42       65491.345      87120        
    276000   276000         2760.4008      294.58386      10550.153      2947.7768      13497.93       65342.932      87120        
    276100   276100         2761.407       297.20958      10516.605      2974.0512      13490.656      65218.874      87120        
    276200   276200         2762.4035      302.22205      10558.901      3024.2089      13583.11       65330.317      87120        
    276300   276300         2763.4007      303.65566      10562.294      3038.5545      13600.849      65358.557      87120        
    276400   276400         2764.38        301.02994      10544.108      3012.2799      13556.388      65263.589      87120        
    276500   276500         2765.3703      291.54794      10535.626      2917.3976      13453.023      65229.299      87120        
    276600   276600         2766.3632      294.98012      10483.866      2951.742       13435.608      65024.674      87120        
    276700   276700         2767.3607      303.41062      10498.157      3036.1024      13534.259      65038.3        87120        
    276800   276800         2768.3658      306.90879      10433.632      3071.1071      13504.739      64868.247      87120        
    276900   276900         2769.356       292.03679      10491.726      2922.2893      13414.015      64981.316      87120        
    277000   277000         2770.3378      297.91583      10453.164      2981.1184      13434.283      64914.668      87120        
    277100   277100         2771.3228      306.9365       10454.61       3071.3845      13525.994      64938.356      87120        
    277200   277200         2772.3041      307.22457      10482.525      3074.2671      13556.792      65071.317      87120        
    277300   277300         2773.2693      293.54508      10524.826      2937.3821      13462.208      65094.355      87120        
    277400   277400         2774.2609      299.90833      10462.051      3001.0565      13463.107      64979.762      87120        
    277500   277500         2775.2587      293.97933      10560.051      2941.7275      13501.779      65331.584      87120        
    277600   277600         2776.2515      302.55714      10544.168      3027.562       13571.73       65310.607      87120        
    277700   277700         2777.2493      301.20955      10595.446      3014.0773      13609.524      65431.079      87120        
    277800   277800         2778.2752      296.82213      10637.099      2970.1741      13607.273      65682.44       87120        
    277900   277900         2779.2758      296.55209      10576.654      2967.472       13544.126      65405.773      87120        
    278000   278000         2780.2901      295.20912      10547.972      2954.0335      13502.005      65254.278      87120        
    278100   278100         2781.2847      299.26405      10558.804      2994.6095      13553.414      65371.036      87120        
    278200   278200         2782.3026      303.32793      10579.265      3035.275       13614.54       65398.995      87120        
    278300   278300         2783.308       304.04426      10556.693      3042.443       13599.136      65340.334      87120        
    278400   278400         2784.2948      301.82031      10523.94       3020.1888      13544.129      65206.325      87120        
    278500   278500         2785.304       299.22168      10537.49       2994.1855      13531.675      65215.433      87120        
    278600   278600         2786.3138      298.98021      10537.681      2991.7692      13529.45       65278.418      87120        
    278700   278700         2787.3066      294.19803      10610.724      2943.9159      13554.64       65513.654      87120        
    278800   278800         2788.3138      303.16997      10552.357      3033.6944      13586.052      65283.089      87120        
    278900   278900         2789.3221      306.00242      10469.94       3062.0375      13531.978      65021.538      87120        
    279000   279000         2790.3133      300.67108      10471.096      3008.689       13479.785      65033.36       87120        
    279100   279100         2791.2833      294.90223      10509.221      2950.9626      13460.183      65051.543      87120        
    279200   279200         2792.2562      304.20876      10478.015      3044.0891      13522.104      65013.246      87120        
    279300   279300         2793.2212      299.81942      10543.882      3000.1668      13544.049      65258.63       87120        
    279400   279400         2794.2009      298.54423      10504.242      2987.4065      13491.649      65121.397      87120        
    279500   279500         2795.1713      292.43894      10460.007      2926.3134      13386.32       64898.774      87120        
    279600   279600         2796.1603      292.42394      10453.484      2926.1633      13379.647      64883.308      87120        
    279700   279700         2797.1516      301.62423      10463.748      3018.2268      13481.975      64974.247      87120        
    279800   279800         2798.1469      306.58469      10454.312      3067.864       13522.176      64980.348      87120        
    279900   279900         2799.1523      298.70636      10518.695      2989.0289      13507.724      65199.385      87120        
    280000   280000         2800.151       303.19225      10473.589      3033.9173      13507.506      65054.129      87120        
    280100   280100         2801.1425      296.52892      10541.338      2967.2402      13508.578      65277.646      87120        
    280200   280200         2802.1428      301.79865      10628.085      3019.9722      13648.057      65645.286      87120        
    280300   280300         2803.1546      304.90522      10631.013      3051.0583      13682.071      65729.451      87120        
    280400   280400         2804.1606      298.84475      10635.702      2990.4137      13626.116      65729.975      87120        
    280500   280500         2805.1773      295.35494      10657.84       2955.4927      13613.333      65788.393      87120        
    280600   280600         2806.1898      300.95953      10616.701      3011.5754      13628.276      65670.933      87120        
    280700   280700         2807.1932      294.89539      10662.955      2950.8941      13613.849      65712.169      87120        
    280800   280800         2808.1951      304.68228      10576.125      3048.8274      13624.952      65483.826      87120        
    280900   280900         2809.2047      296.81856      10570.736      2970.1385      13540.874      65505.123      87120        
    281000   281000         2810.2138      294.05145      10566.747      2942.4491      13509.196      65398.961      87120        
    281100   281100         2811.2042      295.58974      10593.936      2957.8422      13551.778      65533.592      87120        
    281200   281200         2812.2077      308.629        10529.282      3088.3205      13617.603      65337.659      87120        
    281300   281300         2813.1972      303.88668      10549.187      3040.8662      13590.053      65299.877      87120        
    281400   281400         2814.201       298.35675      10542.902      2985.5304      13528.433      65302.878      87120        
    281500   281500         2815.1955      299.60536      10504.944      2998.0248      13502.969      65164.219      87120        
    281600   281600         2816.2037      300.49078      10498.698      3006.8849      13505.583      65060.721      87120        
    281700   281700         2817.1993      301.81355      10505.942      3020.1213      13526.063      65197.977      87120        
    281800   281800         2818.1915      297.6099       10551.376      2978.0571      13529.433      65305.009      87120        
    281900   281900         2819.1754      298.20912      10555.875      2984.0532      13539.928      65254.704      87120        
    282000   282000         2820.1822      307.48384      10490.169      3076.8615      13567.03       65092.944      87120        
    282100   282100         2821.1737      302.06787      10497.758      3022.6662      13520.424      65102.828      87120        
    282200   282200         2822.1744      292.57216      10524.191      2927.6466      13451.838      65125.953      87120        
    282300   282300         2823.1878      298.18714      10479.673      2983.8333      13463.506      65063.405      87120        
    282400   282400         2824.1909      301.46808      10543.787      3016.6642      13560.451      65292.865      87120        
    282500   282500         2825.1928      305.88816      10554.082      3060.8941      13614.976      65307.38       87120        
    282600   282600         2826.1911      304.73646      10510.662      3049.3696      13560.031      65225.323      87120        
    282700   282700         2827.1907      299.79753      10506.076      2999.9478      13506.024      65155.989      87120        
    282800   282800         2828.1915      295.18467      10478.394      2953.7889      13432.183      65035.826      87120        
    282900   282900         2829.189       298.43829      10434.847      2986.3465      13421.194      64877.756      87120        
    283000   283000         2830.1731      300.3253       10522.32       3005.229       13527.549      65166.696      87120        
    283100   283100         2831.16        300.0488       10584.282      3002.4621      13586.745      65447.245      87120        
    283200   283200         2832.1483      301.29302      10582.408      3014.9125      13597.32       65468.792      87120        
    283300   283300         2833.1209      294.63959      10606.705      2948.3344      13555.039      65469.321      87120        
    283400   283400         2834.1138      291.07888      10571.125      2912.7039      13483.829      65399.862      87120        
    283500   283500         2835.1123      292.16867      10536.261      2923.609       13459.87       65253.061      87120        
    283600   283600         2836.118       305.72104      10541.876      3059.2218      13601.098      65286.235      87120        
    283700   283700         2837.1346      304.90421      10556.034      3051.0482      13607.083      65349.099      87120        
    283800   283800         2838.1306      302.5033       10534.482      3027.0233      13561.505      65294.566      87120        
    283900   283900         2839.1358      297.29885      10517.194      2974.9446      13492.139      65156.789      87120        
    284000   284000         2840.1359      301.37288      10482.566      3015.7116      13498.278      65064.998      87120        
    284100   284100         2841.1252      308.16998      10539.914      3083.7274      13623.641      65259.179      87120        
    284200   284200         2842.1236      309.14517      10504.458      3093.4856      13597.943      65102.597      87120        
    284300   284300         2843.1347      301.25124      10480.84       3014.4944      13495.335      65000.03       87120        
    284400   284400         2844.1307      298.18648      10497.81       2983.8266      13481.637      65131.232      87120        
    284500   284500         2845.1189      300.29737      10516.105      3004.9495      13521.054      65184.203      87120        
    284600   284600         2846.1169      301.13493      10575.679      3013.3306      13589.01       65375.78       87120        
    284700   284700         2847.1167      298.6149       10554.608      2988.1137      13542.721      65327.852      87120        
    284800   284800         2848.1216      293.16258      10538.289      2933.5546      13471.843      65251.909      87120        
    284900   284900         2849.1235      298.7609       10541.707      2989.5747      13531.281      65308.903      87120        
    285000   285000         2850.1082      309.11185      10502.994      3093.1523      13596.146      65181.16       87120        
    285100   285100         2851.0943      298.25314      10579.778      2984.4937      13564.272      65446.07       87120        
    285200   285200         2852.0829      289.674        10617.767      2898.6459      13516.413      65537.683      87120        
    285300   285300         2853.0709      298.89566      10622.111      2990.9232      13613.034      65563.822      87120        
    285400   285400         2854.0495      311.07898      10551.919      3112.8365      13664.755      65399.115      87120        
    285500   285500         2855.0559      301.09512      10555.919      3012.9322      13568.851      65339.714      87120        
    285600   285600         2856.042       295.14523      10563.237      2953.3941      13516.631      65352.926      87120        
    285700   285700         2857.0353      302.55135      10522.78       3027.5041      13550.284      65304.919      87120        
    285800   285800         2858.0289      298.70943      10529.669      2989.0596      13518.728      65274.922      87120        
    285900   285900         2859.0249      297.69591      10471.669      2978.9178      13450.586      65066.451      87120        
    286000   286000         2860.0241      298.48986      10449.456      2986.8625      13436.318      65026.037      87120        
    286100   286100         2860.9903      299.29598      10531.465      2994.9289      13526.394      65237.743      87120        
    286200   286200         2861.9698      305.62505      10494.357      3058.2613      13552.619      65132.86       87120        
    286300   286300         2862.9583      295.46824      10555.248      2956.6264      13511.874      65322.499      87120        
    286400   286400         2863.9334      301.37704      10453.207      3015.7532      13468.96       64909.244      87120        
    286500   286500         2864.9242      293.67434      10518.135      2938.6756      13456.811      65215.591      87120        
    286600   286600         2865.9158      300.7412       10522.578      3009.3907      13531.969      65298.615      87120        
    286700   286700         2866.9099      308.17172      10525.387      3083.7448      13609.132      65224.157      87120        
    286800   286800         2867.9099      299.64932      10567.844      2998.4647      13566.309      65418.531      87120        
    286900   286900         2868.9162      296.50004      10536.405      2966.9511      13503.356      65311.138      87120        
    287000   287000         2869.9134      294.71773      10560.212      2949.1164      13509.329      65379.653      87120        
    287100   287100         2870.9146      302.74901      10560.884      3029.4819      13590.366      65406.322      87120        
    287200   287200         2871.8999      301.80749      10573.433      3020.0606      13593.493      65454.185      87120        
    287300   287300         2872.9008      301.1506       10554.189      3013.4873      13567.676      65374.475      87120        
    287400   287400         2873.8984      291.32808      10617.473      2915.1975      13532.67       65562.221      87120        
    287500   287500         2874.8818      304.74124      10541.213      3049.4173      13590.63       65395.905      87120        
    287600   287600         2875.8836      311.29754      10543.543      3115.0236      13658.567      65386.235      87120        
    287700   287700         2876.8944      305.98091      10511.245      3061.8223      13573.068      65267.755      87120        
    287800   287800         2877.9005      299.25136      10559.135      2994.4825      13553.617      65385.582      87120        
    287900   287900         2878.907       298.86004      10556.024      2990.5667      13546.59       65391.692      87120        
    288000   288000         2879.8942      292.53356      10585.908      2927.2603      13513.168      65390.478      87120        
    288100   288100         2880.8862      303.28615      10531.688      3034.8569      13566.545      65269.809      87120        
    288200   288200         2881.8996      302.47429      10550.607      3026.7329      13577.34       65368.174      87120        
    288300   288300         2882.8872      290.57568      10612.229      2907.6686      13519.898      65535.3        87120        
    288400   288400         2883.8745      293.03182      10587.157      2932.2461      13519.403      65504.883      87120        
    288500   288500         2884.8733      304.60941      10559.535      3048.0982      13607.633      65422.192      87120        
    288600   288600         2885.8679      304.38398      10565.612      3045.8424      13611.455      65387.893      87120        
    288700   288700         2886.8665      293.58281      10621.581      2937.7597      13559.341      65525.898      87120        
    288800   288800         2887.8604      295.85065      10533.79       2960.453       13494.243      65267.2        87120        
    288900   288900         2888.8653      296.80711      10516.461      2970.0239      13486.485      65104.37       87120        
    289000   289000         2889.8645      301.49093      10544.472      3016.8929      13561.365      65249.552      87120        
    289100   289100         2890.8655      299.79297      10573.578      2999.9022      13573.48       65305.539      87120        
    289200   289200         2891.849       300.67599      10469.319      3008.7382      13478.057      64947.105      87120        
    289300   289300         2892.823       298.31547      10427.774      2985.1174      13412.891      64737.2        87120        
    289400   289400         2893.8078      295.81843      10419.53       2960.1306      13379.661      64763.06       87120        
    289500   289500         2894.7847      290.31356      10492.122      2905.0456      13397.167      64962.516      87120        
    289600   289600         2895.7695      307.74319      10455.313      3079.4567      13534.77       64944.975      87120        
    289700   289700         2896.7589      308.78217      10425.178      3089.8533      13515.031      64844.631      87120        
    289800   289800         2897.7549      291.9257       10521.547      2921.1777      13442.725      65114.121      87120        
    289900   289900         2898.7563      298.6663       10500.033      2988.628       13488.661      65132.568      87120        
    290000   290000         2899.7666      301.9345       10557.677      3021.3315      13579.009      65346.399      87120        
    290100   290100         2900.7483      302.9574       10592.907      3031.5673      13624.474      65499.631      87120        
    290200   290200         2901.7541      294.8523       10617.779      2950.463       13568.242      65598.974      87120        
    290300   290300         2902.761       292.7903       10572.641      2929.8294      13502.47       65463.203      87120        
    290400   290400         2903.7509      297.67951      10577.231      2978.7536      13555.985      65379.924      87120        
    290500   290500         2904.7508      304.86436      10583.239      3050.6494      13633.889      65516.398      87120        
    290600   290600         2905.7748      302.13993      10611.411      3023.3872      13634.799      65612.782      87120        
    290700   290700         2906.7858      302.80526      10588.639      3030.0449      13618.683      65502.454      87120        
    290800   290800         2907.7946      292.68779      10674.745      2928.8036      13603.548      65853.425      87120        
    290900   290900         2908.809       296.95693      10637.997      2971.5231      13609.521      65730.114      87120        
    291000   291000         2909.8334      297.41601      10642.573      2976.1169      13618.69       65686.568      87120        
    291100   291100         2910.8427      303.83802      10564.121      3040.3792      13604.5        65449.874      87120        
    291200   291200         2911.8367      293.16882      10613.295      2933.6171      13546.912      65594.401      87120        
    291300   291300         2912.8481      305.82626      10499.807      3060.2748      13560.082      65183.075      87120        
    291400   291400         2913.8486      300.42882      10571.647      3006.2648      13577.912      65419.414      87120        
    291500   291500         2914.8475      299.29856      10569.039      2994.9548      13563.994      65409.511      87120        
    291600   291600         2915.8582      301.75412      10541.186      3019.5265      13560.713      65240.557      87120        
    291700   291700         2916.869       302.69816      10474.763      3028.9731      13503.736      64992.061      87120        
    291800   291800         2917.8694      288.6046       10524.86       2887.9448      13412.804      65148.204      87120        
    291900   291900         2918.8764      292.50538      10516.39       2926.9783      13443.368      65099.871      87120        
    292000   292000         2919.8775      301.53557      10457.668      3017.3396      13475.007      64854.781      87120        
    292100   292100         2920.8745      305.17049      10403.976      3053.7127      13457.689      64754.155      87120        
    292200   292200         2921.8552      300.09084      10375.59       3002.8828      13378.473      64585.648      87120        
    292300   292300         2922.8344      294.43326      10397.563      2946.2698      13343.832      64574.899      87120        
    292400   292400         2923.8328      300.4312       10405.884      3006.2886      13412.173      64791.727      87120        
    292500   292500         2924.8226      307.98484      10426.034      3081.8747      13507.909      64729.093      87120        
    292600   292600         2925.8136      314.47378      10495.97       3146.8069      13642.777      65105.243      87120        
    292700   292700         2926.8006      301.14858      10551.953      3013.4672      13565.42       65345.106      87120        
    292800   292800         2927.7868      295.10559      10545.743      2952.9975      13498.741      65198.67       87120        
    292900   292900         2928.7967      297.57056      10549.83       2977.6635      13527.494      65260.146      87120        
    293000   293000         2929.8056      309.65223      10519.773      3098.5596      13618.333      65309.16       87120        
    293100   293100         2930.798       305.67906      10534.029      3058.8018      13592.831      65279.727      87120        
    293200   293200         2931.8013      291.40476      10626.908      2915.9649      13542.873      65567.532      87120        
    293300   293300         2932.8054      302.57271      10569.95       3027.7178      13597.668      65517.53       87120        
    293400   293400         2933.7895      302.17849      10585.705      3023.773       13609.478      65484.058      87120        
    293500   293500         2934.7971      294.58081      10658.696      2947.7463      13606.443      65719.077      87120        
    293600   293600         2935.8126      301.40659      10539.247      3016.049       13555.296      65440.531      87120        
    293700   293700         2936.8076      292.26862      10584.91       2924.6091      13509.519      65463.844      87120        
    293800   293800         2937.8248      297.84713      10573.743      2980.4309      13554.174      65459.762      87120        
    293900   293900         2938.8511      301.0259       10588.276      3012.2396      13600.516      65527.787      87120        
    294000   294000         2939.8786      305.11512      10548.385      3053.1587      13601.544      65362.356      87120        
    294100   294100         2940.8844      299.91664      10561.38       3001.1396      13562.519      65410.238      87120        
    294200   294200         2941.8814      298.4756       10548.459      2986.7197      13535.179      65417.762      87120        
    294300   294300         2942.8624      305.08679      10517.216      3052.8752      13570.091      65253.172      87120        
    294400   294400         2943.8563      304.97988      10546.286      3051.8053      13598.091      65367.289      87120        
    294500   294500         2944.8391      308.8982       10488.561      3091.0143      13579.576      65205.493      87120        
    294600   294600         2945.8288      300.34751      10464.848      3005.4512      13470.299      65006.213      87120        
    294700   294700         2946.8225      297.88199      10460.036      2980.7798      13440.816      65048.211      87120        
    294800   294800         2947.8172      303.229        10434.292      3034.285       13468.577      64951.1        87120        
    294900   294900         2948.8101      297.82613      10528.7        2980.2208      13508.921      65205.484      87120        
    295000   295000         2949.8164      308.19811      10508.03       3084.0088      13592.039      65154.47       87120        
    295100   295100         2950.7966      304.46222      10493.257      3046.6254      13539.883      65124.597      87120        
    295200   295200         2951.7861      296.58405      10502.648      2967.7919      13470.44       65038.281      87120        
    295300   295300         2952.7702      297.86655      10460.214      2980.6252      13440.839      64978.829      87120        
    295400   295400         2953.7712      298.73067      10425.335      2989.2721      13414.607      64815.972      87120        
    295500   295500         2954.7755      287.37379      10498.193      2875.6286      13373.822      64980.125      87120        
    295600   295600         2955.7662      301.43323      10473.334      3016.3156      13489.649      65034.976      87120        
    295700   295700         2956.7671      300.17338      10514.033      3003.7087      13517.742      65163.863      87120        
    295800   295800         2957.7677      292.56933      10557.153      2927.6182      13484.771      65262.586      87120        
    295900   295900         2958.7408      298.26629      10532.102      2984.6253      13516.727      65211.452      87120        
    296000   296000         2959.7344      306.97081      10491.39       3071.7277      13563.117      65136.777      87120        
    296100   296100         2960.7129      298.87018      10523.993      2990.6682      13514.661      65219.941      87120        
    296200   296200         2961.7042      293.50033      10528.193      2936.9343      13465.127      65249.188      87120        
    296300   296300         2962.6992      296.5423       10558.682      2967.3741      13526.056      65372.456      87120        
    296400   296400         2963.6822      302.59478      10579.587      3027.9387      13607.526      65478.84       87120        
    296500   296500         2964.6856      303.62173      10575.515      3038.2149      13613.73       65481.266      87120        
    296600   296600         2965.6889      298.68999      10619.946      2988.8651      13608.811      65598.388      87120        
    296700   296700         2966.6733      293.30067      10618.334      2934.9364      13553.27       65586.297      87120        
    296800   296800         2967.6729      296.44446      10525.057      2966.3951      13491.452      65263.586      87120        
    296900   296900         2968.6609      301.18374      10548.158      3013.819       13561.977      65312.13       87120        
    297000   297000         2969.6585      301.66479      10556.192      3018.6326      13574.824      65319.155      87120        
    297100   297100         2970.629       296.95319      10505.213      2971.4857      13476.698      65213.084      87120        
    297200   297200         2971.6134      292.00738      10543.307      2921.995       13465.302      65231.989      87120        
    297300   297300         2972.6089      298.63241      10527.133      2988.2889      13515.422      65225.901      87120        
    297400   297400         2973.6108      297.00474      10570.216      2972.0015      13542.217      65411.072      87120        
    297500   297500         2974.6002      301.61721      10517.166      3018.1566      13535.322      65095.499      87120        
    297600   297600         2975.5948      298.3843       10562.701      2985.8062      13548.507      65360.262      87120        
    297700   297700         2976.5707      303.23254      10503.193      3034.3205      13537.513      65158.212      87120        
    297800   297800         2977.5785      293.77572      10532.61       2939.6901      13472.3        65097.73       87120        
    297900   297900         2978.556       296.42722      10483.895      2966.2225      13450.117      64963.961      87120        
    298000   298000         2979.5483      297.12854      10439.484      2973.2403      13412.724      64859.215      87120        
    298100   298100         2980.5281      295.38181      10487.334      2955.7615      13443.096      64993.326      87120        
    298200   298200         2981.5128      307.38135      10458.46       3075.8359      13534.296      64975.455      87120        
    298300   298300         2982.4983      300.16913      10507.925      3003.6662      13511.591      65134.917      87120        
    298400   298400         2983.4839      297.6568       10513.036      2978.5264      13491.562      65136.608      87120        
    298500   298500         2984.473       294.63423      10538.142      2948.2808      13486.422      65261.259      87120        
    298600   298600         2985.4652      293.44564      10571.512      2936.3871      13507.899      65427.429      87120        
    298700   298700         2986.4595      300.79165      10573.826      3009.8955      13583.722      65400.199      87120        
    298800   298800         2987.4586      304.69857      10546.978      3048.9904      13595.969      65270.491      87120        
    298900   298900         2988.4607      296.45402      10543.448      2966.4907      13509.938      65242.646      87120        
    299000   299000         2989.4475      300.51294      10512.874      3007.1066      13519.98       65231.167      87120        
    299100   299100         2990.4385      299.7934       10543.623      2999.9064      13543.53       65397.75       87120        
    299200   299200         2991.4347      302.09724      10532.365      3022.96        13555.325      65258.318      87120        
    299300   299300         2992.4168      300.66367      10613.677      3008.6149      13622.292      65547.135      87120        
    299400   299400         2993.4194      306.38481      10606.258      3065.8639      13672.122      65629.264      87120        
    299500   299500         2994.4374      294.43291      10627.262      2946.2663      13573.529      65652.589      87120        
    299600   299600         2995.4511      293.26449      10609.072      2934.5744      13543.646      65490.156      87120        
    299700   299700         2996.4742      299.79158      10583.633      2999.8882      13583.521      65499.847      87120        
    299800   299800         2997.48        300.70048      10596.563      3008.9832      13605.546      65517.812      87120        
    299900   299900         2998.4879      302.74987      10636.349      3029.4906      13665.84       65688.354      87120        
    300000   300000         2999.5191      308.15836      10548.223      3083.611       13631.834      65389.081      87120        
    300100   300100         3000.5111      301.16823      10501.929      3013.6637      13515.592      65146.538      87120        
    300200   300200         3001.5042      291.53872      10554.62       2917.3054      13471.926      65296.292      87120        
    300300   300300         3002.4949      300.11992      10532.614      3003.1738      13535.788      65311.07       87120        
    300400   300400         3003.4852      304.42613      10543.729      3046.2642      13589.993      65290.306      87120        
    300500   300500         3004.4924      301.94273      10552.927      3021.4139      13574.341      65320.004      87120        
    300600   300600         3005.4875      294.28634      10554.246      2944.7996      13499.045      65337.168      87120        
    300700   300700         3006.4817      296.20965      10534.236      2964.0453      13498.282      65225.091      87120        
    300800   300800         3007.4706      300.21981      10564.659      3004.1734      13568.832      65323.829      87120        
    300900   300900         3008.4558      297.63808      10561.807      2978.3391      13540.146      65327.093      87120        
    301000   301000         3009.4436      302.74303      10479.312      3029.4222      13508.734      65049.026      87120        
    301100   301100         3010.4019      300.90336      10489.868      3011.0133      13500.881      65053.913      87120        
    301200   301200         3011.3867      303.57719      10523.167      3037.7693      13560.936      65248.337      87120        
    301300   301300         3012.3733      303.57819      10558.217      3037.7793      13595.996      65275.329      87120        
    301400   301400         3013.3567      304.46453      10510.829      3046.6485      13557.478      65171.426      87120        
    301500   301500         3014.3385      297.92341      10452.987      2981.1942      13434.181      64865.435      87120        
    301600   301600         3015.3024      293.45367      10491.401      2936.4674      13427.868      65010.241      87120        
    301700   301700         3016.2848      302.95776      10452.087      3031.5708      13483.658      64885.575      87120        
    301800   301800         3017.2605      300.71459      10483.499      3009.1244      13492.624      65006.153      87120        
    301900   301900         3018.2555      301.92611      10481.012      3021.2476      13502.26       64984.951      87120        
    302000   302000         3019.2331      302.41085      10477.007      3026.0982      13503.105      64982.444      87120        
    302100   302100         3020.2075      300.27244      10415.276      3004.7         13419.976      64829.659      87120        
    302200   302200         3021.1709      289.81815      10503.369      2900.0884      13403.457      65072.935      87120        
    302300   302300         3022.1571      306.50565      10446.516      3067.0731      13513.589      64942.633      87120        
    302400   302400         3023.1354      300.07594      10531.332      3002.7337      13534.065      65283.124      87120        
    302500   302500         3024.1272      298.46475      10586.635      2986.6112      13573.246      65380.241      87120        
    302600   302600         3025.1353      302.70639      10615.232      3029.0555      13644.287      65621.554      87120        
    302700   302700         3026.1166      300.57803      10598.423      3007.7579      13606.181      65555.274      87120        
    302800   302800         3027.126       291.19591      10604.76       2913.875       13518.635      65436.036      87120        
    302900   302900         3028.1135      299.11589      10544.715      2993.1268      13537.842      65386.351      87120        
    303000   303000         3029.1125      300.45334      10567.955      3006.5102      13574.465      65398.472      87120        
    303100   303100         3030.0824      304.36918      10644.615      3045.6944      13690.31       65657.379      87120        
    303200   303200         3031.07        306.77084      10579.744      3069.7267      13649.471      65478.393      87120        
    303300   303300         3032.0372      297.52651      10586.414      2977.2226      13563.637      65407.162      87120        
    303400   303400         3033.0192      299.33554      10503.189      2995.3248      13498.514      65053.849      87120        
    303500   303500         3033.9802      292.25586      10501.669      2924.4814      13426.151      65023.569      87120        
    303600   303600         3034.9607      297.21398      10472.57       2974.0953      13446.665      64958.273      87120        
    303700   303700         3035.9482      304.2865       10514.603      3044.867       13559.47       65070.966      87120        
    303800   303800         3036.9342      301.7682       10496.464      3019.6675      13516.132      65068.087      87120        
    303900   303900         3037.9115      300.39022      10438.058      3005.8785      13443.937      64822.255      87120        
    304000   304000         3038.8907      295.49465      10489.221      2956.8907      13446.112      65006.352      87120        
    304100   304100         3039.8579      300.7143       10517.335      3009.1215      13526.456      65121.785      87120        
    304200   304200         3040.8115      313.02703      10458.768      3132.3298      13591.098      64904.161      87120        
    304300   304300         3041.8099      306.15872      10480.707      3063.6015      13544.308      65011.979      87120        
    304400   304400         3042.7949      303.14033      10462.788      3033.3978      13496.186      64987.686      87120        
    304500   304500         3043.7875      296.62987      10494.767      2968.2503      13463.018      65036.744      87120        
    304600   304600         3044.8003      297.0779       10553.012      2972.7336      13525.746      65348.52       87120        
    304700   304700         3045.8024      301.08329      10620.706      3012.8138      13633.52       65611.743      87120        
    304800   304800         3046.8221      302.41396      10626.419      3026.1293      13652.549      65628.224      87120        
    304900   304900         3047.8334      294.07025      10601.961      2942.6373      13544.598      65561.946      87120        
    305000   305000         3048.8748      299.71317      10568.426      2999.1036      13567.529      65468.035      87120        
    305100   305100         3049.8763      298.80664      10650.811      2990.0324      13640.844      65760.836      87120        
    305200   305200         3050.8866      303.5062       10682.932      3037.0589      13719.991      65906.992      87120        
    305300   305300         3051.9044      303.13391      10679.803      3033.3335      13713.136      65916.854      87120        
    305400   305400         3052.9019      290.11914      10657.523      2903.1002      13560.624      65722.866      87120        
    305500   305500         3053.9155      296.46708      10587.3        2966.6213      13553.921      65577.723      87120        
    305600   305600         3054.9056      299.03473      10568.097      2992.3147      13560.411      65404.776      87120        
    305700   305700         3055.9093      302.11849      10516.641      3023.1726      13539.814      65203.378      87120        
    305800   305800         3056.936       298.23574      10515.425      2984.3196      13499.745      65203.571      87120        
    305900   305900         3057.9719      298.38411      10557.275      2985.8043      13543.08       65285.429      87120        
    306000   306000         3058.9961      306.07377      10480.863      3062.7514      13543.614      64993.786      87120        
    306100   306100         3059.9738      297.81333      10454.732      2980.0927      13434.824      64953.337      87120        
    306200   306200         3060.9607      302.47851      10396.187      3026.7753      13422.963      64716.337      87120        
    306300   306300         3061.9449      299.76129      10449.212      2999.5852      13448.797      64855.845      87120        
    306400   306400         3062.9303      305.2093       10456.602      3054.101       13510.703      64951.893      87120        
    306500   306500         3063.9006      302.21614      10499.97       3024.1498      13524.12       65111.846      87120        
    306600   306600         3064.8916      298.38424      10519.376      2985.8056      13505.181      65095.56       87120        
    306700   306700         3065.8846      301.65027      10479.073      3018.4874      13497.56       65082.122      87120        
    306800   306800         3066.8816      306.11871      10471.491      3063.2011      13534.692      64995.364      87120        
    306900   306900         3067.8607      297.61528      10522.381      2978.1109      13500.492      65183.094      87120        
    307000   307000         3068.8575      292.55698      10583.924      2927.4946      13511.419      65456.116      87120        
    307100   307100         3069.8401      300.41529      10590.807      3006.1294      13596.936      65443.718      87120        
    307200   307200         3070.8154      313.69659      10499.162      3139.0298      13638.192      65177.324      87120        
    307300   307300         3071.8073      298.95848      10563.177      2991.5518      13554.729      65403.483      87120        
    307400   307400         3072.8025      302.18612      10529.95       3023.8494      13553.799      65264.683      87120        
    307500   307500         3073.7985      299.13661      10535.996      2993.3342      13529.331      65267.231      87120        
    307600   307600         3074.8089      301.69526      10509.693      3018.9376      13528.63       65254.66       87120        
    307700   307700         3075.8108      296.00509      10553.83       2961.9984      13515.829      65375.258      87120        
    307800   307800         3076.814       298.83516      10526.024      2990.3177      13516.342      65240.547      87120        
    307900   307900         3077.8198      294.39572      10591.963      2945.8941      13537.857      65548.536      87120        
    308000   308000         3078.8471      298.9394       10629.799      2991.3608      13621.16       65661.579      87120        
    308100   308100         3079.8449      302.47534      10645.999      3026.7435      13672.743      65762.916      87120        
    308200   308200         3080.848       303.19058      10588.701      3033.9006      13622.602      65522.031      87120        
    308300   308300         3081.8541      295.6977       10568.91       2958.9225      13527.833      65485.964      87120        
    308400   308400         3082.8546      297.62239      10551.796      2978.182       13529.978      65412.688      87120        
    308500   308500         3083.8556      301.87274      10648.346      3020.7135      13669.06       65720.213      87120        
    308600   308600         3084.8621      304.83223      10599.837      3050.3279      13650.165      65551.249      87120        
    308700   308700         3085.8585      294.82887      10599.159      2950.2285      13549.387      65474.659      87120        
    308800   308800         3086.8613      297.77706      10493.128      2979.7297      13472.857      65063.062      87120        
    308900   308900         3087.8723      293.34307      10532.748      2935.3607      13468.109      65256.924      87120        
    309000   309000         3088.8824      299.1773       10557.239      2993.7413      13550.98       65351.3        87120        
    309100   309100         3089.8648      305.17046      10516.077      3053.7125      13569.789      65199.704      87120        
    309200   309200         3090.8672      300.82696      10514.511      3010.2488      13524.76       65140.831      87120        
    309300   309300         3091.853       300.81085      10485.445      3010.0877      13495.533      65051.254      87120        
    309400   309400         3092.8619      295.91773      10535.049      2961.1242      13496.173      65239.526      87120        
    309500   309500         3093.8604      298.38416      10558.327      2985.8047      13544.132      65259.437      87120        
    309600   309600         3094.8424      303.79457      10530.002      3039.9445      13569.946      65173.995      87120        
    309700   309700         3095.8312      295.91781      10541.638      2961.1251      13502.763      65232.748      87120        
    309800   309800         3096.8313      297.14237      10457.965      2973.3787      13431.343      64906.958      87120        
    309900   309900         3097.8174      295.1302       10513          2953.2438      13466.244      65074.281      87120        
    310000   310000         3098.8076      308.46106      10514.085      3086.6401      13600.725      65201.42       87120        
    310100   310100         3099.7854      303.60077      10543.712      3038.0052      13581.717      65214.699      87120        
    310200   310200         3100.7707      297.04258      10549.604      2972.3801      13521.984      65241.236      87120        
    310300   310300         3101.7668      298.62974      10492.444      2988.2622      13480.706      65092.519      87120        
    310400   310400         3102.7555      295.64512      10536.428      2958.3964      13494.825      65191.303      87120        
    310500   310500         3103.75        310.19695      10509.006      3104.0104      13613.017      65134.468      87120        
    310600   310600         3104.7459      305.50186      10578.74       3057.0286      13635.768      65436.573      87120        
    310700   310700         3105.7426      303.43144      10549.44       3036.3108      13585.75       65343.638      87120        
    310800   310800         3106.7328      302.3032       10516.963      3025.021       13541.984      65251.582      87120        
    310900   310900         3107.7403      289.01781      10609.791      2892.0797      13501.87       65520.278      87120        
    311000   311000         3108.7526      305.252        10524.627      3054.5283      13579.155      65316.897      87120        
    311100   311100         3109.7474      307.37218      10550.686      3075.7441      13626.43       65375.244      87120        
    311200   311200         3110.7433      300.75851      10587.4        3009.5639      13596.964      65493.869      87120        
    311300   311300         3111.7431      299.12198      10579.46       2993.1878      13572.647      65454.596      87120        
    311400   311400         3112.7302      302.11093      10552.882      3023.097       13575.979      65343.175      87120        
    311500   311500         3113.7436      299.68439      10584.793      2998.8156      13583.609      65486.34       87120        
    311600   311600         3114.7551      303.09255      10528.765      3032.9197      13561.685      65310.454      87120        
    311700   311700         3115.7657      293.39792      10512.639      2935.9096      13448.548      65148.831      87120        
    311800   311800         3116.778       296.14294      10513.744      2963.3778      13477.122      65229.99       87120        
    311900   311900         3117.7874      300.70207      10547.885      3008.9991      13556.884      65339.288      87120        
    312000   312000         3118.8107      303.27956      10524.229      3034.791       13559.02       65273.028      87120        
    312100   312100         3119.8092      297.89215      10555.242      2980.8815      13536.123      65353.439      87120        
    312200   312200         3120.7943      300.92239      10499.21       3011.2037      13510.414      65188.871      87120        
    312300   312300         3121.7885      284.70039      10573.877      2848.8771      13422.754      65309.375      87120        
    312400   312400         3122.7886      296.10312      10530.64       2962.9794      13493.619      65300.579      87120        
    312500   312500         3123.7821      303.19484      10544.787      3033.9432      13578.73       65347.618      87120        
    312600   312600         3124.7805      298.24648      10632.986      2984.427       13617.413      65676.956      87120        
    312700   312700         3125.7819      305.64826      10586.105      3058.4936      13644.599      65557.544      87120        
    312800   312800         3126.7918      294.94664      10643.199      2951.4069      13594.606      65644.306      87120        
    312900   312900         3127.7946      294.25368      10621.177      2944.4728      13565.65       65631.655      87120        
    313000   313000         3128.8027      297.20963      10609.416      2974.0518      13583.467      65564.137      87120        
    313100   313100         3129.785       303.10456      10608.798      3033.0398      13641.838      65544.614      87120        
    313200   313200         3130.7694      308.05326      10567.256      3082.5594      13649.815      65398.761      87120        
    313300   313300         3131.7642      295.00331      10576.291      2951.9741      13528.265      65379.468      87120        
    313400   313400         3132.7359      299.97592      10498.067      3001.7328      13499.8        65108.153      87120        
    313500   313500         3133.7399      297.48489      10527.728      2976.8062      13504.534      65210.358      87120        
    313600   313600         3134.7473      304.06699      10506.288      3042.6705      13548.959      65128.903      87120        
    313700   313700         3135.7371      307.21687      10510.938      3074.19        13585.128      65169.7        87120        
    313800   313800         3136.7386      297.36041      10510.093      2975.5605      13485.654      65143.117      87120        
    313900   313900         3137.7284      301.15468      10446.611      3013.5282      13460.139      64933.992      87120        
    314000   314000         3138.727       296.12185      10537.401      2963.1668      13500.568      65252.871      87120        
    314100   314100         3139.6967      306.97104      10516.115      3071.7301      13587.845      65214.655      87120        
    314200   314200         3140.6892      305.3972       10547.346      3055.9813      13603.327      65245.861      87120        
    314300   314300         3141.6812      299.36262      10551.883      2995.5958      13547.478      65315.794      87120        
    314400   314400         3142.6856      298.92303      10520.324      2991.197       13511.521      65238.859      87120        
    314500   314500         3143.6666      299.14035      10521.29       2993.3716      13514.661      65184.626      87120        
    314600   314600         3144.6542      302.37612      10588.607      3025.7506      13614.357      65423.384      87120        
    314700   314700         3145.6421      305.17499      10562.264      3053.7577      13616.021      65330.119      87120        
    314800   314800         3146.6357      300.39365      10565.406      3005.9129      13571.319      65368.05       87120        
    314900   314900         3147.6185      301.17792      10550.671      3013.7608      13564.431      65318.017      87120        
    315000   315000         3148.6085      295.23315      10629.992      2954.2739      13584.266      65538.002      87120        
    315100   315100         3149.5752      306.7901       10535.376      3069.9195      13605.296      65245.042      87120        
    315200   315200         3150.5402      291.98405      10549.822      2921.7615      13471.584      65256.914      87120        
    315300   315300         3151.5227      292.57738      10500.17       2927.6987      13427.869      65044.618      87120        
    315400   315400         3152.489       299.5308       10500.952      2997.2787      13498.23       65114.308      87120        
    315500   315500         3153.4649      300.82906      10514.402      3010.2698      13524.672      65087.208      87120        
    315600   315600         3154.4321      303.28844      10500.307      3034.8798      13535.187      65092.629      87120        
    315700   315700         3155.4244      295.97077      10484.828      2961.655       13446.483      64980.221      87120        
    315800   315800         3156.4261      289.68185      10514.461      2898.7244      13413.186      65074.013      87120        
    315900   315900         3157.4098      296.77797      10508.63       2969.7323      13478.362      65094.234      87120        
    316000   316000         3158.4031      299.92383      10520.364      3001.2116      13521.576      65132.837      87120        
    316100   316100         3159.3746      298.6324       10550.565      2988.2888      13538.854      65263.325      87120        
    316200   316200         3160.3476      302.3806       10527.896      3025.7955      13553.692      65254.202      87120        
    316300   316300         3161.3262      296.98812      10545.319      2971.8351      13517.154      65195.397      87120        
    316400   316400         3162.3168      294.08758      10545.901      2942.8107      13488.711      65255.131      87120        
    316500   316500         3163.301       301.18293      10515.941      3013.8109      13529.752      65157.892      87120        
    316600   316600         3164.2973      298.00764      10589.724      2982.0371      13571.761      65350.118      87120        
    316700   316700         3165.2943      311.52976      10511.554      3117.3472      13628.901      65183.169      87120        
    316800   316800         3166.3038      300.46538      10524.363      3006.6307      13530.994      65180.749      87120        
    316900   316900         3167.2988      297.89176      10540.38       2980.8775      13521.257      65263.235      87120        
    317000   317000         3168.3124      302.98715      10510.056      3031.865       13541.921      65181.279      87120        
    317100   317100         3169.3048      298.97719      10534.134      2991.739       13525.873      65309.592      87120        
    317200   317200         3170.3009      294.06988      10593.726      2942.6336      13536.36       65488.367      87120        
    317300   317300         3171.2991      307.67767      10549.19       3078.801       13627.991      65340.69       87120        
    317400   317400         3172.291       303.70811      10561.453      3039.0793      13600.533      65376.153      87120        
    317500   317500         3173.2867      301.21424      10548.092      3014.1242      13562.216      65360.439      87120        
    317600   317600         3174.2688      296.20015      10607.706      2963.9503      13571.656      65570.224      87120        
    317700   317700         3175.2639      302.9891       10563.055      3031.8845      13594.94       65416.5        87120        
    317800   317800         3176.2613      308.76174      10611.685      3089.6489      13701.334      65563.062      87120        
    317900   317900         3177.2638      303.78731      10632.06       3039.8718      13671.932      65661.485      87120        
    318000   318000         3178.2466      294.99715      10627.086      2951.9124      13578.998      65572.424      87120        
    318100   318100         3179.2269      297.93815      10581.28       2981.3418      13562.622      65423.917      87120        
    318200   318200         3180.2152      306.14805      10498.25       3063.4948      13561.744      65129.943      87120        
    318300   318300         3181.2066      296.94169      10519.555      2971.3706      13490.926      65193.848      87120        
    318400   318400         3182.2021      291.28576      10482.382      2914.7741      13397.156      65011.431      87120        
    318500   318500         3183.1948      297.48175      10462.481      2976.7747      13439.256      64882.41       87120        
    318600   318600         3184.2008      301.27882      10481.595      3014.7704      13496.366      64985.988      87120        
    318700   318700         3185.188       303.92352      10443.971      3041.2348      13485.206      64904.672      87120        
    318800   318800         3186.1767      293.57507      10524.026      2937.6822      13461.708      65099.584      87120        
    318900   318900         3187.1836      299.22925      10520.6        2994.2612      13514.861      65193.165      87120        
    319000   319000         3188.1754      311.08822      10516.5        3112.9289      13629.429      65219.808      87120        
    319100   319100         3189.1516      304.86314      10553.677      3050.6372      13604.314      65339.661      87120        
    319200   319200         3190.1517      306.28952      10491.574      3064.9104      13556.484      65140.122      87120        
    319300   319300         3191.138       289.24298      10622.716      2894.3328      13517.049      65508.002      87120        
    319400   319400         3192.1273      302.0186       10535.01       3022.1731      13557.183      65296.399      87120        
    319500   319500         3193.1401      298.82724      10575.667      2990.2385      13565.906      65357.566      87120        
    319600   319600         3194.142       297.76728      10562.706      2979.632       13542.338      65336.316      87120        
    319700   319700         3195.1373      295.8699       10529.392      2960.6457      13490.037      65257.558      87120        
    319800   319800         3196.1559      295.34215      10533.554      2955.3647      13488.918      65238.345      87120        
    319900   319900         3197.1584      305.57605      10520.366      3057.7709      13578.136      65235.408      87120        
    320000   320000         3198.1595      304.30591      10568.283      3045.0613      13613.344      65392.169      87120        
    320100   320100         3199.1464      302.72327      10517.371      3029.2244      13546.596      65165.306      87120        
    320200   320200         3200.1417      298.88894      10535.678      2990.8559      13526.534      65262.871      87120        
    320300   320300         3201.1505      300.71465      10517.76       3009.125       13526.885      65254.125      87120        
    320400   320400         3202.1639      294.39322      10568.908      2945.8691      13514.777      65407.728      87120        
    320500   320500         3203.1664      298.46801      10544.135      2986.6438      13530.779      65319.428      87120        
    320600   320600         3204.2031      307.30676      10544.083      3075.0895      13619.173      65404.087      87120        
    320700   320700         3205.2098      304.51236      10545.878      3047.1271      13593.005      65358.634      87120        
    320800   320800         3206.2129      294.597        10537.621      2947.9083      13485.529      65239.657      87120        
    320900   320900         3207.217       295.77171      10551.155      2959.663       13510.818      65366.078      87120        
    321000   321000         3208.2213      298.97023      10561.557      2991.6693      13553.226      65417.143      87120        
    321100   321100         3209.21        300.95365      10563.518      3011.5165      13575.035      65330.427      87120        
    321200   321200         3210.2027      304.67004      10545.205      3048.705       13593.91       65373.884      87120        
    321300   321300         3211.2107      296.94192      10564.765      2971.3729      13536.138      65379.618      87120        
    321400   321400         3212.2024      299.88994      10493.649      3000.8725      13494.522      65080.335      87120        
    321500   321500         3213.1997      295.83526      10523.798      2960.299       13484.097      65226.129      87120        
    321600   321600         3214.1924      296.33543      10562.562      2965.304       13527.866      65375.481      87120        
    321700   321700         3215.1793      301.11303      10545.294      3013.1114      13558.405      65223.749      87120        
    321800   321800         3216.1689      306.2105       10485.12       3064.1196      13549.24       65083.42       87120        
    321900   321900         3217.1546      294.12298      10543.273      2943.1649      13486.437      65215.678      87120        
    322000   322000         3218.1445      294.6914       10549.505      2948.8528      13498.358      65170.512      87120        
    322100   322100         3219.119       303.13128      10497.752      3033.3072      13531.059      65127.944      87120        
    322200   322200         3220.1033      297.0169       10530.883      2972.1232      13503.006      65188.483      87120        
    322300   322300         3221.0916      300.32583      10464.445      3005.2342      13469.68       65019.174      87120        
    322400   322400         3222.0884      287.70091      10525.577      2878.902       13404.48       65157.746      87120        
    322500   322500         3223.0935      298.32101      10501.728      2985.1729      13486.9        65123.84       87120        
    322600   322600         3224.1129      302.15369      10550.925      3023.5248      13574.449      65298.051      87120        
    322700   322700         3225.1172      306.58134      10488.339      3067.8305      13556.169      65157          87120        
    322800   322800         3226.1245      297.06586      10533.628      2972.6131      13506.242      65222.423      87120        
    322900   322900         3227.1217      293.93572      10552.35       2941.2911      13493.641      65347.627      87120        
    323000   323000         3228.1148      296.06209      10567.141      2962.5688      13529.709      65384.659      87120        
    323100   323100         3229.1018      309.77992      10500.881      3099.8373      13600.718      65127.051      87120        
    323200   323200         3230.0986      305.94151      10538.111      3061.428       13599.539      65347.603      87120        
    323300   323300         3231.0989      301.35135      10545.717      3015.4962      13561.213      65375.882      87120        
    323400   323400         3232.107       297.77839      10555.156      2979.7431      13534.899      65390.891      87120        
    323500   323500         3233.1109      297.78828      10572.832      2979.842       13552.674      65448.067      87120        
    323600   323600         3234.1051      309.94486      10531.052      3101.4878      13632.539      65317.134      87120        
    323700   323700         3235.1013      301.31561      10584.739      3015.1386      13599.878      65446.448      87120        
    323800   323800         3236.0983      300.12361      10557.515      3003.2108      13560.725      65361.101      87120        
    323900   323900         3237.0976      296.36699      10555.252      2965.6198      13520.872      65331.753      87120        
    324000   324000         3238.1009      296.13266      10549.394      2963.2749      13512.669      65307.648      87120        
    324100   324100         3239.0717      301.45393      10534.328      3016.5226      13550.85       65248.676      87120        
    324200   324200         3240.0739      308.53093      10512.991      3087.3392      13600.33       65213.28       87120        
    324300   324300         3241.0699      300.99391      10496.475      3011.9195      13508.395      65166.828      87120        
    324400   324400         3242.0728      294.68108      10491.058      2948.7496      13439.808      65018.274      87120        
    324500   324500         3243.0484      293.22179      10522.084      2934.1471      13456.231      65172.452      87120        
    324600   324600         3244.0385      300.94528      10513.256      3011.4328      13524.689      65113.521      87120        
    324700   324700         3245.0462      303.90384      10513.669      3041.0379      13554.707      65176.009      87120        
    324800   324800         3246.0278      299.51668      10518.136      2997.1374      13515.273      65158.296      87120        
    324900   324900         3247.0189      293.49444      10510.928      2936.8754      13447.803      65178.82       87120        
    325000   325000         3247.9924      295.69826      10491.104      2958.9281      13450.032      65012.94       87120        
    325100   325100         3248.9825      300.7228       10589.277      3009.2065      13598.484      65527.968      87120        
    325200   325200         3249.9691      301.76034      10587.668      3019.5888      13607.257      65439.777      87120        
    325300   325300         3250.9552      301.08151      10527.102      3012.796       13539.898      65157.76       87120        
    325400   325400         3251.9433      290.0174       10590.631      2902.0821      13492.713      65389.374      87120        
    325500   325500         3252.9348      304.75647      10512.715      3049.5698      13562.285      65146.249      87120        
    325600   325600         3253.9243      303.01399      10562.614      3032.1335      13594.747      65254.504      87120        
    325700   325700         3254.8939      295.656        10552.671      2958.5052      13511.176      65362.635      87120        
    325800   325800         3255.8834      295.3345       10504.164      2955.2881      13459.452      65144.521      87120        
    325900   325900         3256.8756      301.20223      10480.946      3014.004       13494.95       65036.296      87120        
    326000   326000         3257.854       302.58275      10512.117      3027.8182      13539.935      65213.213      87120        
    326100   326100         3258.8293      296.14805      10577.583      2963.429       13541.012      65322.651      87120        
    326200   326200         3259.7881      305.97599      10534.368      3061.7731      13596.141      65240.682      87120        
    326300   326300         3260.7623      310.62514      10553.433      3108.2951      13661.728      65340.519      87120        
    326400   326400         3261.7409      304.18189      10465.567      3043.8202      13509.388      64954.318      87120        
    326500   326500         3262.7162      304.81339      10435.786      3050.1394      13485.926      64855.76       87120        
    326600   326600         3263.7037      297.30181      10522.321      2974.9742      13497.295      65187.107      87120        
    326700   326700         3264.6906      296.22892      10566.485      2964.2382      13530.723      65315.707      87120        
    326800   326800         3265.6813      302.64508      10533.174      3028.442       13561.616      65231.005      87120        
    326900   326900         3266.6797      299.68116      10585.913      2998.7833      13584.696      65434.437      87120        
    327000   327000         3267.6784      304.97438      10563.098      3051.7503      13614.848      65321.626      87120        
    327100   327100         3268.6552      295.40871      10601.951      2956.0307      13557.982      65495.038      87120        
    327200   327200         3269.6517      296.31469      10557.216      2965.0964      13522.312      65328.007      87120        
    327300   327300         3270.6373      303.48265      10555.426      3036.8232      13592.249      65340.194      87120        
    327400   327400         3271.6294      304.1787       10572.66       3043.7883      13616.448      65373.946      87120        
    327500   327500         3272.625       302.23526      10541.706      3024.3411      13566.047      65289.971      87120        
    327600   327600         3273.6413      295.68929      10575.113      2958.8383      13533.952      65321.102      87120        
    327700   327700         3274.6475      301.12013      10534.383      3013.1824      13547.565      65254.595      87120        
    327800   327800         3275.6428      300.39566      10539.573      3005.933       13545.506      65258.295      87120        
    327900   327900         3276.6559      300.53175      10547.228      3007.2948      13554.523      65291.657      87120        
    328000   328000         3277.6384      295.58591      10554.713      2957.8038      13512.517      65329.984      87120        
    328100   328100         3278.6233      295.12098      10540.708      2953.1515      13493.86       65213.219      87120        
    328200   328200         3279.5957      300.89187      10546.854      3010.8984      13557.752      65272.131      87120        
    328300   328300         3280.5824      301.59707      10577.132      3017.955       13595.087      65343.929      87120        
    328400   328400         3281.573       304.55757      10518.402      3047.5795      13565.982      65174.67       87120        
    328500   328500         3282.5651      296.97462      10521.612      2971.7001      13493.312      65107.682      87120        
    328600   328600         3283.5483      297.18392      10499.189      2973.7945      13472.983      65104.529      87120        
    328700   328700         3284.5134      302.17176      10476.633      3023.7057      13500.339      64957.817      87120        
    328800   328800         3285.5175      303.98846      10482.815      3041.8846      13524.7        64993.371      87120        
    328900   328900         3286.5051      298.30394      10477.247      2985.002       13462.249      64952.891      87120        
    329000   329000         3287.497       299.14595      10406.364      2993.4276      13399.791      64748.103      87120        
    329100   329100         3288.4585      294.01826      10488.274      2942.117       13430.391      64970.07       87120        
    329200   329200         3289.4438      299.78609      10535.491      2999.8333      13535.325      65238.222      87120        
    329300   329300         3290.4308      303.33867      10529.902      3035.3825      13565.285      65229.694      87120        
    329400   329400         3291.4008      298.74801      10557.386      2989.4457      13546.832      65266.884      87120        
    329500   329500         3292.3919      298.51383      10533.625      2987.1023      13520.727      65278.601      87120        
    329600   329600         3293.3945      301.30947      10531.596      3015.0771      13546.673      65349.48       87120        
    329700   329700         3294.4028      301.78365      10624.922      3019.822       13644.744      65587.094      87120        
    329800   329800         3295.4272      309.54883      10625.301      3097.5249      13722.826      65633.023      87120        
    329900   329900         3296.4565      302.78321      10615.361      3029.8243      13645.185      65652.888      87120        
    330000   330000         3297.4838      295.34084      10635.967      2955.3516      13591.318      65639.663      87120        
    330100   330100         3298.4998      297.92272      10599.776      2981.1874      13580.963      65599.994      87120        
    330200   330200         3299.5109      296.88158      10572.944      2970.7691      13543.713      65504.802      87120        
    330300   330300         3300.5386      303.39662      10533.945      3035.9623      13569.907      65332.426      87120        
    330400   330400         3301.5443      299.99241      10609.233      3001.8978      13611.13       65683.859      87120        
    330500   330500         3302.568       303.49484      10604.392      3036.9452      13641.338      65716.611      87120        
    330600   330600         3303.5764      302.99359      10598.287      3031.9294      13630.216      65562.561      87120        
    330700   330700         3304.6053      296.34956      10598.446      2965.4454      13563.891      65576.885      87120        
    330800   330800         3305.6144      297.36102      10580.176      2975.5667      13555.742      65463.896      87120        
    330900   330900         3306.6175      306.32806      10533.705      3065.296       13599.001      65270.462      87120        
    331000   331000         3307.6343      300.01763      10532.045      3002.1502      13534.195      65271.763      87120        
    331100   331100         3308.6154      297.08469      10484.28       2972.8015      13457.082      65080.858      87120        
    331200   331200         3309.6087      301.15608      10453.188      3013.5422      13466.73       64913.942      87120        
    331300   331300         3310.5991      298.82051      10497.495      2990.1711      13487.666      65161.643      87120        
    331400   331400         3311.595       298.00052      10522.942      2981.9658      13504.908      65140.508      87120        
    331500   331500         3312.5767      297.0113       10553.922      2972.0671      13525.989      65255.799      87120        
    331600   331600         3313.5619      309.1984       10450.805      3094.0183      13544.824      64926.755      87120        
    331700   331700         3314.5446      304.13637      10465.571      3043.3647      13508.936      64861.438      87120        
    331800   331800         3315.5441      292.14326      10479.62       2923.3547      13402.974      64963.192      87120        
    331900   331900         3316.5142      293.39577      10473.354      2935.888       13409.242      64883.499      87120        
    332000   332000         3317.504       305.83309      10451.718      3060.3431      13512.061      64901.68       87120        
    332100   332100         3318.4813      303.75517      10511.297      3039.5503      13550.847      65134.989      87120        
    332200   332200         3319.4665      300.35377      10535.964      3005.5138      13541.477      65217.826      87120        
    332300   332300         3320.4559      303.2581       10486.677      3034.5762      13521.253      65092.929      87120        
    332400   332400         3321.4413      299.6176       10492.774      2998.1473      13490.921      65046.492      87120        
    332500   332500         3322.428       295.02022      10469.628      2952.1432      13421.771      64939.952      87120        
    332600   332600         3323.4008      294.33111      10505.175      2945.2476      13450.422      65072.139      87120        
    332700   332700         3324.3898      303.65524      10503.731      3038.5502      13542.281      65081.287      87120        
    332800   332800         3325.3766      303.75265      10508.681      3039.525       13548.206      65141.146      87120        
    332900   332900         3326.3744      299.38395      10490.812      2995.8092      13486.621      65132.201      87120        
    333000   333000         3327.3514      289.89029      10566.19       2900.8101      13467.001      65369.84       87120        
    333100   333100         3328.3303      302.19427      10593.055      3023.9309      13616.986      65503.75       87120        
    333200   333200         3329.3187      300.2976       10628.335      3004.9518      13633.286      65591.057      87120        
    333300   333300         3330.2915      306.05906      10546.97       3062.6043      13609.574      65301.551      87120        
    333400   333400         3331.281       298.42129      10542.721      2986.1763      13528.898      65299.528      87120        
    333500   333500         3332.2605      296.78444      10539.634      2969.797       13509.431      65301.937      87120        
    333600   333600         3333.2381      295.23928      10605.958      2954.3353      13560.294      65572.467      87120        
    333700   333700         3334.2438      309.98326      10488.7        3101.8721      13590.573      65158.38       87120        
    333800   333800         3335.2305      298.24172      10482.422      2984.3794      13466.801      65122.472      87120        
    333900   333900         3336.2131      295.65108      10489.577      2958.456       13448.033      65133.808      87120        
    334000   334000         3337.2016      299.84544      10507.8        3000.4272      13508.227      65166.374      87120        
    334100   334100         3338.1852      302.76395      10527.713      3029.6315      13557.344      65261.5        87120        
    334200   334200         3339.1782      306.43848      10500.808      3066.401       13567.209      65176.348      87120        
    334300   334300         3340.1641      301.14884      10451.841      3013.4698      13465.311      64935.954      87120        
    334400   334400         3341.1495      294.18104      10475.386      2943.7459      13419.132      65067.209      87120        
    334500   334500         3342.1321      299.27546      10470.158      2994.7236      13464.882      65016.053      87120        
    334600   334600         3343.1306      299.97375      10522.583      3001.7111      13524.294      65244.355      87120        
    334700   334700         3344.1268      299.64455      10546.158      2998.417       13544.575      65309.106      87120        
    334800   334800         3345.1335      300.00286      10585.94       3002.0025      13587.942      65401.355      87120        
    334900   334900         3346.1354      312.89106      10533.954      3130.9692      13664.923      65274.758      87120        
    335000   335000         3347.1224      300.61237      10559.772      3008.1015      13567.873      65313.343      87120        
    335100   335100         3348.1081      301.3398       10502.063      3015.3806      13517.444      65192.961      87120        
    335200   335200         3349.0775      297.05465      10495.263      2972.5009      13467.764      65071.356      87120        
    335300   335300         3350.0789      295.23342      10519.172      2954.2767      13473.449      65141.245      87120        
    335400   335400         3351.0738      303.28705      10525.655      3034.8659      13560.521      65193.247      87120        
    335500   335500         3352.0657      303.85272      10525.58       3040.5263      13566.107      65216.377      87120        
    335600   335600         3353.056       301.09652      10497.762      3012.9462      13510.708      65060.535      87120        
    335700   335700         3354.0287      301.36844      10459.733      3015.6672      13475.4        64962.744      87120        
    335800   335800         3355.0132      306.92895      10469.964      3071.3089      13541.273      64971.301      87120        
    335900   335900         3355.9993      306.84753      10483.197      3070.4941      13553.692      64966.628      87120        
    336000   336000         3356.9889      301.90916      10455.084      3021.0779      13476.162      64921.384      87120        
    336100   336100         3357.9736      295.01908      10518.787      2952.1318      13470.919      65140.088      87120        
    336200   336200         3358.9413      302.65992      10501.672      3028.5905      13530.262      65067.548      87120        
    336300   336300         3359.9274      307.99514      10523.432      3081.9778      13605.409      65194.619      87120        
    336400   336400         3360.8959      301.95431      10562.183      3021.5298      13583.713      65372.792      87120        
    336500   336500         3361.8817      301.39616      10536.882      3015.9446      13552.826      65195.602      87120        
    336600   336600         3362.8622      298.91604      10534.019      2991.1271      13525.146      65269.964      87120        
    336700   336700         3363.8592      301.86047      10466.853      3020.5908      13487.444      65017.632      87120        
    336800   336800         3364.8362      295.11859      10519.676      2953.1275      13472.803      65173.623      87120        
    336900   336900         3365.8277      305.79604      10523.456      3059.9724      13583.429      65212.745      87120        
    337000   337000         3366.8197      306.66195      10521.415      3068.6371      13590.052      65216.831      87120        
    337100   337100         3367.8037      301.59851      10522.139      3017.9694      13540.108      65195.721      87120        
    337200   337200         3368.7751      299.21269      10521.006      2994.0955      13515.102      65193.984      87120        
    337300   337300         3369.761       300.74882      10499.448      3009.4669      13508.915      65117.582      87120        
    337400   337400         3370.7485      293.29101      10474.895      2934.8397      13409.735      64916.765      87120        
    337500   337500         3371.7399      289.71385      10475.665      2899.0447      13374.709      64995.499      87120        
    337600   337600         3372.7143      302.91632      10465.835      3031.1562      13496.991      64997.568      87120        
    337700   337700         3373.7177      299.52434      10541.608      2997.214       13538.822      65197.172      87120        
    337800   337800         3374.7239      305.34879      10467.065      3055.4969      13522.561      65082.617      87120        
    337900   337900         3375.7186      292.36104      10541.946      2925.5339      13467.48       65201.639      87120        
    338000   338000         3376.72        297.32569      10540.523      2975.2131      13515.736      65228.864      87120        
    338100   338100         3377.7084      309.32763      10505.17       3095.3114      13600.482      65158.104      87120        
    338200   338200         3378.7002      299.00336      10538.775      2992.0008      13530.776      65182.134      87120        
    338300   338300         3379.7004      290.74679      10575.31       2909.3808      13484.69       65384.867      87120        
    338400   338400         3380.692       297.75714      10572.512      2979.5304      13552.042      65407.471      87120        
    338500   338500         3381.6903      304.32935      10559.193      3045.2958      13604.488      65294.04       87120        
    338600   338600         3382.6847      302.24014      10542.607      3024.3899      13566.997      65266.217      87120        
    338700   338700         3383.6788      296.29564      10515.764      2964.9058      13480.67       65183.674      87120        
    338800   338800         3384.6653      290.55177      10534.38       2907.4293      13441.81       65164.816      87120        
    338900   338900         3385.6418      298.41276      10578.525      2986.0909      13564.616      65404.359      87120        
    339000   339000         3386.6449      305.85018      10547.054      3060.5141      13607.568      65311.52       87120        
    339100   339100         3387.6238      293.00787      10611.222      2932.0065      13543.228      65467.032      87120        
    339200   339200         3388.6152      296.11659      10550.671      2963.1142      13513.785      65282.567      87120        
    339300   339300         3389.6303      301.21359      10549.32       3014.1176      13563.438      65298.745      87120        
    339400   339400         3390.6318      305.73738      10552.25       3059.3854      13611.636      65258.085      87120        
    339500   339500         3391.6114      300.71883      10543.156      3009.1668      13552.323      65221.067      87120        
    339600   339600         3392.5922      301.9847       10484.576      3021.8339      13506.41       65033.967      87120        
    339700   339700         3393.5721      298.89511      10508.214      2990.9176      13499.131      65066.458      87120        
    339800   339800         3394.559       303.06001      10487.759      3032.5941      13520.353      64998.67       87120        
    339900   339900         3395.5546      299.09843      10504.747      2992.9521      13497.699      65009.119      87120        
    340000   340000         3396.5487      294.58693      10471.256      2947.8075      13419.063      64922.64       87120        
    340100   340100         3397.5111      301.77031      10427.783      3019.6885      13447.472      64784.036      87120        
    340200   340200         3398.4931      307.24179      10448.95       3074.4394      13523.39       64853.925      87120        
    340300   340300         3399.468       305.98665      10469.407      3061.8797      13531.287      64984.893      87120        
    340400   340400         3400.4512      296.58452      10468.53       2967.7965      13436.326      64884.504      87120        
    340500   340500         3401.4339      298.77464      10454.831      2989.7122      13444.543      64938.414      87120        
    340600   340600         3402.4224      304.75566      10449.829      3049.5617      13499.39       64934.476      87120        
    340700   340700         3403.4256      304.88161      10480.629      3050.822       13531.451      65043.136      87120        
    340800   340800         3404.4329      298.00848      10476.946      2982.0455      13458.992      65038.592      87120        
    340900   340900         3405.4391      293.38061      10526.211      2935.7364      13461.947      65288.392      87120        
    341000   341000         3406.445       298.01861      10554.891      2982.1468      13537.038      65346.962      87120        
    341100   341100         3407.4222      296.51121      10623.32       2967.0629      13590.383      65575.247      87120        
    341200   341200         3408.4174      302.75333      10596.241      3029.5252      13625.766      65619.549      87120        
    341300   341300         3409.4014      298.35734      10646.685      2985.5364      13632.221      65651.223      87120        
    341400   341400         3410.4034      306.00927      10580.236      3062.1061      13642.342      65515.463      87120        
    341500   341500         3411.4342      292.31346      10614.31       2925.0579      13539.368      65615.749      87120        
    341600   341600         3412.4469      291.49385      10601.37       2916.8564      13518.226      65501.75       87120        
    341700   341700         3413.4687      298.97751      10598.845      2991.7421      13590.587      65492.738      87120        
    341800   341800         3414.4773      304.29789      10546.492      3044.981       13591.473      65338.733      87120        
    341900   341900         3415.4841      300.78771      10532.322      3009.8561      13542.178      65256.543      87120        
    342000   342000         3416.4928      300.22392      10484.44       3004.2145      13488.655      65121.253      87120        
    342100   342100         3417.4835      291.85643      10523.365      2920.4845      13443.849      65225.829      87120        
    342200   342200         3418.4643      287.89226      10506.791      2880.8167      13387.608      65131.256      87120        
    342300   342300         3419.4661      299.70767      10470.389      2999.0486      13469.438      65016.631      87120        
    342400   342400         3420.4636      299.89208      10520.613      3000.8939      13521.507      65154.344      87120        
    342500   342500         3421.4495      302.93571      10522.053      3031.3502      13553.403      65174.863      87120        
    342600   342600         3422.4235      303.06881      10483.415      3032.6821      13516.097      65056.807      87120        
    342700   342700         3423.4143      295.84913      10466.048      2960.4378      13426.486      64881.546      87120        
    342800   342800         3424.4055      291.3368       10502.332      2915.2848      13417.617      65062.761      87120        
    342900   342900         3425.4014      298.33626      10482.949      2985.3254      13468.274      65052.051      87120        
    343000   343000         3426.3942      298.25198      10525.683      2984.4821      13510.165      65157.499      87120        
    343100   343100         3427.3813      304.97993      10487.634      3051.8058      13539.439      65098.014      87120        
    343200   343200         3428.3667      299.37004      10528.439      2995.6701      13524.109      65220.012      87120        
    343300   343300         3429.3471      296.47996      10485.528      2966.7503      13452.278      65089.074      87120        
    343400   343400         3430.3473      291.33983      10545.88       2915.3151      13461.195      65320.645      87120        
    343500   343500         3431.3514      302.25487      10537.839      3024.5373      13562.376      65331.392      87120        
    343600   343600         3432.3593      301.72247      10575.813      3019.2099      13595.023      65472.125      87120        
    343700   343700         3433.3739      303.32641      10541.602      3035.2598      13576.862      65413.75       87120        
    343800   343800         3434.3845      298.62699      10556.943      2988.2346      13545.177      65396.648      87120        
    343900   343900         3435.3775      303.43588      10543.922      3036.3553      13580.277      65443.941      87120        
    344000   344000         3436.3906      307.18933      10578.161      3073.9144      13652.075      65517.934      87120        
    344100   344100         3437.3731      306.79857      10593.178      3070.0042      13663.182      65506.098      87120        
    344200   344200         3438.3941      293.96972      10581.785      2941.6313      13523.416      65496.971      87120        
    344300   344300         3439.4         296.85369      10541.697      2970.49        13512.187      65267.827      87120        
    344400   344400         3440.4008      304.59855      10521.004      3047.9895      13568.993      65252.522      87120        
    344500   344500         3441.3969      301.38951      10561.317      3015.878       13577.195      65469.735      87120        
    344600   344600         3442.3971      302.6729       10506.542      3028.7204      13535.263      65191.344      87120        
    344700   344700         3443.3917      298.36692      10507.564      2985.6323      13493.196      65159.514      87120        
    344800   344800         3444.3876      300.78207      10507.258      3009.7996      13517.058      65190.037      87120        
    344900   344900         3445.3736      300.01835      10518.773      3002.1574      13520.93       65094.625      87120        
    345000   345000         3446.3517      306.09595      10427.547      3062.9734      13490.521      64798.28       87120        
    345100   345100         3447.3114      294.18983      10453.521      2943.8339      13397.355      64879.309      87120        
    345200   345200         3448.2881      300.03081      10374.197      3002.2821      13376.479      64622.358      87120        
    345300   345300         3449.2679      292.41289      10500.547      2926.0528      13426.599      64984.224      87120        
    345400   345400         3450.2568      302.16979      10456.228      3023.686       13479.914      64943.29       87120        
    345500   345500         3451.247       298.81901      10479.903      2990.1561      13470.059      64874.777      87120        
    345600   345600         3452.2405      303.67231      10460.134      3038.721       13498.855      64883.887      87120        
    345700   345700         3453.2404      300.64046      10518.264      3008.3826      13526.646      65079.875      87120        
    345800   345800         3454.2373      294.91084      10503.777      2951.0487      13454.826      64986.071      87120        
    345900   345900         3455.2318      298.77411      10440.058      2989.7068      13429.765      64825.909      87120        
    346000   346000         3456.2252      296.33495      10496.705      2965.2992      13462.004      65055.672      87120        
    346100   346100         3457.2057      300.97811      10567.034      3011.7613      13578.795      65219.864      87120        
    346200   346200         3458.1729      305.26773      10543.661      3054.6857      13598.347      65250.173      87120        
    346300   346300         3459.1667      303.08167      10496.076      3032.8108      13528.887      65050.248      87120        
    346400   346400         3460.1529      297.6541       10552.689      2978.4994      13531.189      65287.179      87120        
    346500   346500         3461.1607      301.09905      10526.903      3012.9715      13539.875      65227.171      87120        
    346600   346600         3462.1685      304.17394      10496.384      3043.7407      13540.125      65144.056      87120        
    346700   346700         3463.1708      300.39357      10540.436      3005.9121      13546.348      65256.124      87120        
    346800   346800         3464.154       301.4047       10583.95       3016.03        13599.98       65466.077      87120        
    346900   346900         3465.14        306.42437      10542.936      3066.2598      13609.196      65314.318      87120        
    347000   347000         3466.1466      300.62615      10500.212      3008.2394      13508.451      65128.901      87120        
    347100   347100         3467.1182      298.40928      10492.802      2986.0561      13478.858      65111.962      87120        
    347200   347200         3468.1108      294.4956       10569.559      2946.8935      13516.453      65421.733      87120        
    347300   347300         3469.0902      302.01569      10586.872      3022.144       13609.016      65480.786      87120        
    347400   347400         3470.0913      299.66922      10672.282      2998.6638      13670.946      65795.101      87120        
    347500   347500         3471.0765      301.01641      10556.196      3012.1445      13568.34       65433.96       87120        
    347600   347600         3472.0805      298.88318      10510.066      2990.7983      13500.865      65186.335      87120        
    347700   347700         3473.0809      300.28329      10530.594      3004.8085      13535.403      65311.176      87120        
    347800   347800         3474.08        303.26783      10556.925      3034.6736      13591.598      65366.156      87120        
    347900   347900         3475.0841      300.32928      10558.949      3005.2688      13564.218      65311.353      87120        
    348000   348000         3476.0747      298.44684      10506.437      2986.432       13492.869      65210.765      87120        
    348100   348100         3477.0648      291.83593      10512.223      2920.2794      13432.502      65151.091      87120        
    348200   348200         3478.0417      294.27195      10549.678      2944.6556      13494.334      65283.013      87120        
    348300   348300         3479.0404      300.3762       10531.789      3005.7383      13537.528      65270.116      87120        
    348400   348400         3480.0377      296.87108      10564.387      2970.664       13535.051      65321.965      87120        
    348500   348500         3481.0308      303.14781      10502.197      3033.4726      13535.67       65133.045      87120        
    348600   348600         3482.0383      294.216        10517.665      2944.0957      13461.761      65193.579      87120        
    348700   348700         3483.0202      291.30279      10519.656      2914.9445      13434.6        65177.939      87120        
    348800   348800         3484.0073      306.56008      10451.859      3067.6177      13519.477      64878.66       87120        
    348900   348900         3484.9949      301.60836      10542.64       3018.068       13560.708      65289.469      87120        
    349000   349000         3485.9795      299.21791      10528.736      2994.1477      13522.883      65184.075      87120        
    349100   349100         3486.9374      298.44011      10504.554      2986.3646      13490.919      65100.588      87120        
    349200   349200         3487.9227      302.49925      10501.675      3026.9827      13528.658      65171.471      87120        
    349300   349300         3488.9236      306.52554      10540.98       3067.2721      13608.252      65348.047      87120        
    349400   349400         3489.9216      306.04282      10493.977      3062.4418      13556.418      65044.37       87120        
    349500   349500         3490.9254      294.29155      10560.461      2944.8517      13505.313      65333.199      87120        
    349600   349600         3491.917       304.17117      10513.053      3043.713       13556.766      65197.969      87120        
    349700   349700         3492.9111      303.46599      10538.747      3036.6565      13575.403      65299.076      87120        
    349800   349800         3493.9152      291.80159      10576.702      2919.9358      13496.638      65420.21       87120        
    349900   349900         3494.9232      293.89856      10524.139      2940.9193      13465.058      65213.973      87120        
    350000   350000         3495.935       297.0519       10570.117      2972.4734      13542.591      65421.887      87120        
    350100   350100         3496.9408      301.6659       10562.802      3018.6438      13581.446      65453.559      87120        
    350200   350200         3497.9369      302.46425      10547.366      3026.6325      13573.999      65369.907      87120        
    350300   350300         3498.9387      298.81541      10542.909      2990.1201      13533.029      65351.089      87120        
    350400   350400         3499.9437      291.35467      10585.85       2915.4636      13501.313      65481.403      87120        
    350500   350500         3500.9458      302.92967      10586.152      3031.2898      13617.442      65460.87       87120        
    350600   350600         3501.9535      305.61771      10585.862      3058.1878      13644.05       65493.543      87120        
    350700   350700         3502.9394      303.94434      10559.17       3041.4432      13600.614      65392.105      87120        
    350800   350800         3503.9484      298.67751      10531.301      2988.7402      13520.042      65291.256      87120        
    350900   350900         3504.9539      292.18102      10559.85       2923.7326      13483.583      65354.549      87120        
    351000   351000         3505.9604      308.89927      10505.352      3091.025       13596.377      65191.074      87120        
    351100   351100         3506.9608      303.14593      10554.601      3033.4538      13588.055      65360.475      87120        
    351200   351200         3507.9456      301.04217      10531.108      3012.4023      13543.511      65307.058      87120        
    351300   351300         3508.947       298.27928      10518.573      2984.7553      13503.328      65181.581      87120        
    351400   351400         3509.9254      302.28935      10503.691      3024.8824      13528.573      65178.101      87120        
    351500   351500         3510.933       310.70479      10525.082      3109.0922      13634.175      65276.302      87120        
    351600   351600         3511.9515      304.88929      10540.093      3050.8989      13590.992      65252.667      87120        
    351700   351700         3512.935       295.95857      10580.004      2961.5329      13541.537      65421.308      87120        
    351800   351800         3513.9347      300.8474       10524.231      3010.4533      13534.684      65217.104      87120        
    351900   351900         3514.9311      296.83777      10544.715      2970.3307      13515.046      65212.349      87120        
    352000   352000         3515.9063      293.30085      10535.941      2934.9382      13470.879      65262.514      87120        
    352100   352100         3516.8868      288.78413      10515.785      2889.7413      13405.526      65102.343      87120        
    352200   352200         3517.857       301.7945       10517.067      3019.9307      13536.998      65174.092      87120        
    352300   352300         3518.8473      300.62161      10553.514      3008.194       13561.708      65355.682      87120        
    352400   352400         3519.8279      303.1971       10506.386      3033.9659      13540.352      65194.41       87120        
    352500   352500         3520.8254      292.2908       10544.111      2924.8311      13468.942      65270.228      87120        
    352600   352600         3521.8066      292.18303      10564.751      2923.7527      13488.504      65394.774      87120        
    352700   352700         3522.8059      300.5968       10607.5        3007.9457      13615.446      65548.23       87120        
    352800   352800         3523.7904      307.69735      10561.024      3078.9979      13640.022      65387.19       87120        
    352900   352900         3524.7962      298.06098      10584.95       2982.5708      13567.521      65519.752      87120        
    353000   353000         3525.7976      295.42352      10602.696      2956.1789      13558.875      65468.775      87120        
    353100   353100         3526.7708      300.46437      10571.333      3006.6206      13577.953      65402.832      87120        
    353200   353200         3527.7489      304.16264      10582.888      3043.6276      13626.516      65441.419      87120        
    353300   353300         3528.7531      307.61553      10603.474      3078.1792      13681.653      65489.128      87120        
    353400   353400         3529.7534      302.17279      10526.198      3023.716       13549.914      65163.588      87120        
    353500   353500         3530.732       296.45307      10550.471      2966.4811      13516.952      65326.034      87120        
    353600   353600         3531.7325      303.68257      10504.033      3038.8238      13542.856      65124.775      87120        
    353700   353700         3532.7137      306.02133      10489.693      3062.2267      13551.92       65065.714      87120        
    353800   353800         3533.6919      298.44038      10477.872      2986.3673      13464.239      64975.3        87120        
    353900   353900         3534.6862      294.19633      10472.063      2943.8989      13415.962      64966.411      87120        
    354000   354000         3535.6743      294.91017      10565.526      2951.042       13516.568      65252.121      87120        
    354100   354100         3536.6379      302.73642      10556.844      3029.356       13586.2        65318.88       87120        
    354200   354200         3537.625       305.29564      10500.208      3054.965       13555.173      65089.501      87120        
    354300   354300         3538.6013      299.10795      10494.844      2993.0474      13487.891      65059.978      87120        
    354400   354400         3539.5854      299.36845      10508.503      2995.6542      13504.157      65158.664      87120        
    354500   354500         3540.5809      302.71875      10525.417      3029.1792      13554.596      65149.954      87120        
    354600   354600         3541.5701      303.7202       10531.667      3039.2003      13570.867      65218.145      87120        
    354700   354700         3542.5816      298.12703      10503.273      2983.2318      13486.505      65118.885      87120        
    354800   354800         3543.5847      291.88386      10531.579      2920.759       13452.338      65195.566      87120        
    354900   354900         3544.5833      302.20438      10518.707      3024.0321      13542.739      65217.351      87120        
    355000   355000         3545.5932      301.07584      10592.029      3012.7393      13604.768      65542          87120        
    355100   355100         3546.5979      309.06816      10528.301      3092.7151      13621.016      65277.815      87120        
    355200   355200         3547.6148      298.37919      10537.52       2985.755       13523.275      65282.921      87120        
    355300   355300         3548.6232      290.27883      10593.134      2904.6981      13497.832      65520.048      87120        
    355400   355400         3549.6155      302.55574      10564.455      3027.548       13592.003      65453.523      87120        
    355500   355500         3550.6244      300.25794      10623.839      3004.5549      13628.394      65621.491      87120        
    355600   355600         3551.6478      302.03192      10577.048      3022.3063      13599.354      65551.87       87120        
    355700   355700         3552.6544      298.17226      10541.568      2983.6844      13525.253      65373.324      87120        
    355800   355800         3553.6631      300.82289      10511.172      3010.2081      13521.38       65225.131      87120        
    355900   355900         3554.6919      307.35372      10569.874      3075.5593      13645.434      65492.082      87120        
    356000   356000         3555.706       302.94567      10566.947      3031.4499      13598.397      65399.768      87120        
    356100   356100         3556.6843      294.71723      10570.353      2949.1113      13519.464      65360.387      87120        
    356200   356200         3557.6736      295.51818      10560.148      2957.1262      13517.274      65371.867      87120        
    356300   356300         3558.6591      298.92476      10569.33       2991.2143      13560.544      65353.054      87120        
    356400   356400         3559.6251      311.11461      10459.853      3113.193       13573.046      64965.346      87120        
    356500   356500         3560.6127      299.72046      10460.662      2999.1766      13459.838      64943.367      87120        
    356600   356600         3561.6004      292.47157      10473.206      2926.64        13399.846      64947.376      87120        
    356700   356700         3562.5755      297.66488      10475.228      2978.6072      13453.836      64972.474      87120        
    356800   356800         3563.5849      303.76566      10465.032      3039.6551      13504.687      65052.277      87120        
    356900   356900         3564.5621      304.30591      10459.888      3045.0612      13504.95       64983.138      87120        
    357000   357000         3565.5649      292.57236      10524.978      2927.6485      13452.626      65144.351      87120        
    357100   357100         3566.5347      297.4446       10496.601      2976.403       13473.004      65091.724      87120        
    357200   357200         3567.5105      305.7967       10534.086      3059.9789      13594.065      65239.124      87120        
    357300   357300         3568.4868      309.80224      10480.784      3100.0607      13580.844      65074.356      87120        
    357400   357400         3569.4717      304.43698      10452.561      3046.3728      13498.934      64983.38       87120        
    357500   357500         3570.4545      299.58036      10484.39       2997.7746      13482.165      65085.974      87120        
    357600   357600         3571.4269      303.50777      10489.536      3037.0746      13526.611      65149.039      87120        
    357700   357700         3572.4166      303.05367      10550.986      3032.5306      13583.517      65363.171      87120        
    357800   357800         3573.416       307.391        10604.738      3075.9324      13680.671      65609.699      87120        
    357900   357900         3574.428       305.17087      10590.951      3053.7165      13644.668      65501.659      87120        
    358000   358000         3575.4482      299.16636      10525.338      2993.6319      13518.97       65315.04       87120        
    358100   358100         3576.4405      299.3456       10516.009      2995.4255      13511.434      65223.113      87120        
    358200   358200         3577.4407      301.93078      10514.999      3021.2943      13536.294      65203.499      87120        
    358300   358300         3578.428       306.63321      10502.674      3068.3495      13571.023      65212.336      87120        
    358400   358400         3579.422       295.62322      10538.205      2958.1772      13496.382      65244.259      87120        
    358500   358500         3580.4202      291.60225      10541.457      2917.941       13459.398      65317.102      87120        
    358600   358600         3581.4184      298.36177      10519.951      2985.5807      13505.532      65167.972      87120        
    358700   358700         3582.4244      305.22669      10504.131      3054.2751      13558.406      65148.685      87120        
    358800   358800         3583.4314      303.14497      10491.886      3033.4442      13525.33       65091.138      87120        
    358900   358900         3584.4307      295.90871      10555.568      2961.034       13516.602      65385.005      87120        
    359000   359000         3585.4527      302.93593      10485.617      3031.3524      13516.969      65126.276      87120        
    359100   359100         3586.4523      304.70833      10492.498      3049.0881      13541.586      65144.193      87120        
    359200   359200         3587.4356      305.94031      10533.529      3061.4159      13594.945      65201.186      87120        
    359300   359300         3588.4319      303.02284      10491.894      3032.2221      13524.116      65105.986      87120        
    359400   359400         3589.4314      290.56383      10528.231      2907.5501      13435.781      65205.531      87120        
    359500   359500         3590.427       300.23956      10489.3        3004.3709      13493.671      65069.444      87120        
    359600   359600         3591.3977      302.66039      10533.882      3028.5952      13562.478      65278.464      87120        
    359700   359700         3592.3982      302.28412      10517.976      3024.83        13542.806      65282.224      87120        
    359800   359800         3593.4028      301.4633       10521.405      3016.6164      13538.022      65210.308      87120        
    359900   359900         3594.4162      294.14513      10568.136      2943.3866      13511.522      65408.563      87120        
    360000   360000         3595.4171      289.86003      10566.619      2900.5074      13467.126      65448.099      87120        
    360100   360100         3596.4246      297.21969      10594.933      2974.1524      13569.085      65482.2        87120        
    360200   360200         3597.4079      302.8808       10583.578      3030.8008      13614.379      65525.794      87120        
    360300   360300         3598.4006      295.57903      10627.714      2957.735       13585.449      65589.227      87120        
    360400   360400         3599.394       301.95324      10610.609      3021.519       13632.128      65501.896      87120        
    360500   360500         3600.3696      309.05247      10539.038      3092.558       13631.597      65274.441      87120        
    360600   360600         3601.3589      294.80105      10585.467      2949.9501      13535.417      65433.634      87120        
    360700   360700         3602.3596      298.48123      10477.737      2986.7761      13464.513      65064.394      87120        
    360800   360800         3603.3531      296.76681      10495.858      2969.6206      13465.479      65094.888      87120        
    360900   360900         3604.3327      305.70027      10476.258      3059.014       13535.272      65081.162      87120        
    361000   361000         3605.3282      296.88359      10560.007      2970.7892      13530.796      65301.184      87120        
    361100   361100         3606.3032      298.14619      10536.831      2983.4235      13520.254      65194.835      87120        
    361200   361200         3607.2928      299.1106       10478.413      2993.0739      13471.487      65035.294      87120        
    361300   361300         3608.2731      295.82599      10501.571      2960.2063      13461.777      65050.58       87120        
    361400   361400         3609.2734      294.92575      10562.306      2951.198       13513.504      65296.341      87120        
    361500   361500         3610.2744      304.44782      10515.569      3046.4813      13562.05       65181.661      87120        
    361600   361600         3611.2765      304.0359       10491.728      3042.3593      13534.088      65069.021      87120        
    361700   361700         3612.2654      292.07646      10542.304      2922.6863      13464.99       65281.684      87120        
    361800   361800         3613.2607      294.5746       10542.212      2947.6841      13489.896      65260.819      87120        
    361900   361900         3614.2675      302.47737      10502.256      3026.7638      13529.02       65066.603      87120        
    362000   362000         3615.2883      297.74872      10576.923      2979.4462      13556.369      65392.589      87120        
    362100   362100         3616.2804      305.3888       10546.628      3055.8973      13602.525      65367.39       87120        
    362200   362200         3617.2757      297.68557      10563.789      2978.8143      13542.604      65303.169      87120        
    362300   362300         3618.2763      293.14973      10526.386      2933.426       13459.812      65300.778      87120        
    362400   362400         3619.2782      300.25447      10532.595      3004.5202      13537.115      65300.486      87120        
    362500   362500         3620.2837      303.544        10539.32       3037.4371      13576.757      65290.538      87120        
    362600   362600         3621.3146      301.55958      10527.24       3017.5798      13544.82       65296.094      87120        
    362700   362700         3622.327       293.23064      10562.339      2934.2357      13496.575      65392.543      87120        
    362800   362800         3623.3378      296.09085      10528.751      2962.8566      13491.607      65244.932      87120        
    362900   362900         3624.3413      300.85065      10560.484      3010.4859      13570.97       65368.511      87120        
    363000   363000         3625.3484      306.09102      10527.218      3062.9241      13590.143      65225.602      87120        
    363100   363100         3626.3221      303.15267      10516.045      3033.5212      13549.566      65225.517      87120        
    363200   363200         3627.3149      296.49217      10515.209      2966.8724      13482.081      65207.899      87120        
    363300   363300         3628.3037      291.4956       10576.788      2916.8738      13493.661      65382.457      87120        
    363400   363400         3629.2852      300.4671       10539.015      3006.6478      13545.662      65279.708      87120        
    363500   363500         3630.2868      299.48759      10559.455      2996.8463      13556.301      65400.887      87120        
    363600   363600         3631.2801      302.02785      10543.4        3022.2657      13565.666      65305.308      87120        
    363700   363700         3632.2772      300.46491      10557.616      3006.626       13564.242      65305.383      87120        
    363800   363800         3633.2739      301.37278      10548.101      3015.7106      13563.811      65302.692      87120        
    363900   363900         3634.2542      298.5074       10503.456      2987.038       13490.494      65133.069      87120        
    364000   364000         3635.2539      294.51395      10519.454      2947.0772      13466.532      65218.47       87120        
    364100   364100         3636.2362      301.83652      10514.668      3020.3511      13535.019      65147.036      87120        
    364200   364200         3637.2325      303.96322      10541.726      3041.6321      13583.358      65290.327      87120        
    364300   364300         3638.2303      304.36881      10508.042      3045.6906      13553.733      65152.546      87120        
    364400   364400         3639.2314      296.07046      10543.114      2962.6525      13505.766      65267.535      87120        
    364500   364500         3640.2232      302.17841      10499.395      3023.7722      13523.167      65125.556      87120        
    364600   364600         3641.1973      306.28252      10505.66       3064.8404      13570.5        65150.683      87120        
    364700   364700         3642.1845      306.0764       10592.23       3062.7778      13655.008      65456.466      87120        
    364800   364800         3643.173       304.89952      10553.641      3051.0012      13604.643      65235.276      87120        
    364900   364900         3644.1667      300.0988       10538.526      3002.9625      13541.489      65289.763      87120        
    365000   365000         3645.1638      299.28124      10507.842      2994.7814      13502.624      65160.81       87120        
    365100   365100         3646.1363      296.0112       10557.913      2962.0595      13519.972      65305.731      87120        
    365200   365200         3647.1269      306.84959      10516.522      3070.5148      13587.037      65221.636      87120        
    365300   365300         3648.1187      304.73884      10545.618      3049.3934      13595.011      65324.621      87120        
    365400   365400         3649.089       293.76516      10536.044      2939.5844      13475.628      65235.936      87120        
    365500   365500         3650.0786      295.6837       10526.019      2958.7824      13484.801      65238.139      87120        
    365600   365600         3651.0574      301.09841      10542.477      3012.9651      13555.442      65262.453      87120        
    365700   365700         3652.054       307.19946      10523.676      3074.0157      13597.692      65244.641      87120        
    365800   365800         3653.0681      294.79782      10606.782      2949.9178      13556.7        65510.355      87120        
    365900   365900         3654.0826      296.73854      10524.745      2969.3378      13494.083      65211.684      87120        
    366000   366000         3655.0907      290.39007      10517.957      2905.8113      13423.768      65209.516      87120        
    366100   366100         3656.0797      290.0175       10554.732      2902.0831      13456.815      65307.058      87120        
    366200   366200         3657.0726      303.54603      10519.926      3037.4575      13557.383      65213.002      87120        
    366300   366300         3658.044       300.22675      10539.387      3004.2428      13543.63       65303.495      87120        
    366400   366400         3659.0382      295.52183      10555.097      2957.1626      13512.26       65378.971      87120        
    366500   366500         3660.0414      302.89116      10499.38       3030.9044      13530.285      65141.093      87120        
    366600   366600         3661.0231      305.95275      10537.063      3061.5405      13598.603      65318.736      87120        
    366700   366700         3662.0299      305.55116      10561.583      3057.5219      13619.105      65407.302      87120        
    366800   366800         3663.0295      295.25388      10584.914      2954.4813      13539.395      65513.797      87120        
    366900   366900         3664.0314      296.18247      10534.95       2963.7734      13498.723      65302.829      87120        
    367000   367000         3665.0418      300.73184      10545.172      3009.297       13554.469      65328.94       87120        
    367100   367100         3666.0297      298.55748      10586.308      2987.5391      13573.847      65451.665      87120        
    367200   367200         3667.0195      296.94495      10559.572      2971.4032      13530.975      65369.526      87120        
    367300   367300         3668.0113      297.21718      10515.772      2974.1273      13489.899      65195.541      87120        
    367400   367400         3669.0089      304.35846      10473.218      3045.5871      13518.806      65022.967      87120        
    367500   367500         3670.0098      300.01351      10542.589      3002.109       13544.698      65260.465      87120        
    367600   367600         3671.0155      294.18182      10551.851      2943.7537      13495.605      65325.392      87120        
    367700   367700         3672.0316      293.35331      10527.241      2935.4631      13462.704      65202.887      87120        
    367800   367800         3673.034       306.09237      10510.662      3062.9376      13573.599      65151.83       87120        
    367900   367900         3674.0457      302.01211      10560.393      3022.1081      13582.501      65394.715      87120        
    368000   368000         3675.0395      295.61622      10577.21       2958.1071      13535.317      65447.638      87120        
    368100   368100         3676.0247      296.19964      10548.223      2963.9452      13512.168      65273.501      87120        
    368200   368200         3677.0195      296.47584      10608.009      2966.709       13574.718      65523.04       87120        
    368300   368300         3678.015       305.4501       10569.681      3056.5107      13626.192      65375.985      87120        
    368400   368400         3679.0113      304.43185      10546.495      3046.3214      13592.817      65338.882      87120        
    368500   368500         3680.0088      303.85249      10531.585      3040.524       13572.109      65308.223      87120        
    368600   368600         3681.0068      299.13523      10539.533      2993.3204      13532.854      65299.351      87120        
    368700   368700         3681.9944      295.41535      10577.916      2956.0972      13534.013      65413.041      87120        
    368800   368800         3683.028       307.5707       10583.974      3077.7306      13661.705      65490.665      87120        
    368900   368900         3684.0391      306.69429      10622.064      3068.9607      13691.024      65652.574      87120        
    369000   369000         3685.0391      306.5883       10529.219      3067.9002      13597.119      65339.607      87120        
    369100   369100         3686.0141      298.10084      10535.17       2982.9697      13518.14       65254.028      87120        
    369200   369200         3687.0097      301.11495      10504.484      3013.1306      13517.614      65114.089      87120        
    369300   369300         3688.0009      300.8381       10509.945      3010.3603      13520.306      65207.425      87120        
    369400   369400         3688.9957      297.16926      10563.755      2973.6478      13537.403      65363.679      87120        
    369500   369500         3690.0109      305.90561      10544.863      3061.0688      13605.932      65261.459      87120        
    369600   369600         3691.0133      305.317        10508.311      3055.1788      13563.49       65124.613      87120        
    369700   369700         3692.0114      299.5813       10455.909      2997.784       13453.693      64911.091      87120        
    369800   369800         3693.021       297.98024      10450.038      2981.7629      13431.801      64887.312      87120        
    369900   369900         3694.0317      295.71518      10484.25       2959.0974      13443.347      65051.511      87120        
    370000   370000         3695.0306      298.62235      10521.613      2988.1883      13509.801      65171.58       87120        
    370100   370100         3696.0049      307.48935      10505.335      3076.9166      13582.251      65105.633      87120        
    370200   370200         3696.9899      304.34075      10477.908      3045.4098      13523.317      64987.209      87120        
    370300   370300         3697.9562      298.78602      10486.945      2989.826       13476.771      65031.503      87120        
    370400   370400         3698.9388      300.50091      10486.376      3006.9862      13493.362      65022.995      87120        
    370500   370500         3699.9283      301.76461      10523.626      3019.6315      13543.257      65228.477      87120        
    370600   370600         3700.9256      304.97231      10556.806      3051.7296      13608.536      65252.654      87120        
    370700   370700         3701.9393      304.56558      10560.811      3047.6596      13608.471      65336.234      87120        
    370800   370800         3702.9323      297.24997      10529.836      2974.4554      13504.291      65227.029      87120        
    370900   370900         3703.9273      296.09988      10535.332      2962.9469      13498.279      65242.853      87120        
    371000   371000         3704.9092      301.81416      10535.969      3020.1273      13556.096      65268.603      87120        
    371100   371100         3705.8916      306.56919      10517.677      3067.7089      13585.386      65298.852      87120        
    371200   371200         3706.8887      291.03424      10590.215      2912.2572      13502.472      65419.763      87120        
    371300   371300         3707.8862      297.4556       10536.728      2976.513       13513.241      65330.781      87120        
    371400   371400         3708.8721      300.38575      10566.038      3005.8338      13571.872      65498.838      87120        
    371500   371500         3709.8885      303.66238      10637.1        3038.6217      13675.722      65689.685      87120        
    371600   371600         3710.91        308.63237      10620.15       3088.3543      13708.504      65677.581      87120        
    371700   371700         3711.9321      300.08344      10661.848      3002.8088      13664.656      65815.151      87120        
    371800   371800         3712.952       301.48965      10591.544      3016.8801      13608.424      65533.188      87120        
    371900   371900         3713.9748      300.7416       10547.604      3009.3946      13556.999      65405.126      87120        
    372000   372000         3714.9954      299.15088      10557.934      2993.477       13551.411      65430.529      87120        
    372100   372100         3716.0125      304.67423      10578.942      3048.7469      13627.689      65476.02       87120        
    372200   372200         3717.0289      305.52853      10542.637      3057.2955      13599.933      65340.028      87120        
    372300   372300         3718.012       298.81988      10543.639      2990.1649      13533.804      65304.819      87120        
    372400   372400         3719.0176      296.15758      10549.237      2963.5243      13512.761      65277.802      87120        
    372500   372500         3720.0021      305.85031      10450.084      3060.5154      13510.599      64980.892      87120        
    372600   372600         3720.9985      301.45072      10519.618      3016.4905      13536.109      65156.082      87120        
    372700   372700         3721.9908      307.21196      10480.39       3074.1409      13554.531      65005.422      87120        
    372800   372800         3723.0094      299.64774      10437.126      2998.4489      13435.575      64854.293      87120        
    372900   372900         3724.0116      294.19239      10423.494      2943.8595      13367.353      64743.517      87120        
    373000   373000         3724.9948      297.57652      10393.741      2977.7231      13371.464      64612.529      87120        
    373100   373100         3725.9659      297.66195      10400.366      2978.5779      13378.944      64636.231      87120        
    373200   373200         3726.936       303.87018      10423.753      3040.701       13464.454      64743.493      87120        
    373300   373300         3727.911       305.52614      10476.728      3057.2715      13533.999      65008.603      87120        
    373400   373400         3728.9201      296.48019      10510.285      2966.7525      13477.038      65158.325      87120        
    373500   373500         3729.9286      297.02431      10498.361      2972.1973      13470.558      65076.537      87120        
    373600   373600         3730.9414      296.88055      10545.205      2970.7588      13515.963      65345.571      87120        
    373700   373700         3731.931       304.65868      10510.12       3048.5913      13558.711      65183.609      87120        
    373800   373800         3732.9564      298.16976      10609.553      2983.6594      13593.213      65549.975      87120        
    373900   373900         3733.9617      301.32598      10646.322      3015.2423      13661.564      65712.101      87120        
    374000   374000         3734.9553      307.56461      10596.69       3077.6697      13674.359      65622.403      87120        
    374100   374100         3735.9691      302.0865       10583.853      3022.8526      13606.705      65585.079      87120        
    374200   374200         3736.9638      297.09621      10622.525      2972.9168      13595.441      65691.541      87120        
    374300   374300         3737.9813      304.16352      10590.817      3043.6364      13634.453      65574.841      87120        
    374400   374400         3738.9871      304.09254      10596.956      3042.9261      13639.882      65610.08       87120        
    374500   374500         3740.0028      293.0098       10658.221      2932.0258      13590.247      65770.186      87120        
    374600   374600         3741.0111      296.81379      10534.598      2970.0908      13504.689      65279.668      87120        
    374700   374700         3742.0154      301.26037      10493.148      3014.5858      13507.734      65085.5        87120        
    374800   374800         3743.0233      300.58813      10544.817      3007.8589      13552.676      65267.563      87120        
    374900   374900         3744.0187      303.39992      10474.939      3035.9953      13510.934      65013.608      87120        
    375000   375000         3745.0028      298.02315      10435.325      2982.1923      13417.517      64845.914      87120        
    375100   375100         3745.9916      298.68755      10438.536      2988.8407      13427.376      64849.188      87120        
    375200   375200         3746.9814      295.14261      10525.656      2953.3679      13479.023      65100.184      87120        
    375300   375300         3747.9457      303.28768      10477.088      3034.8722      13511.96       64987.012      87120        
    375400   375400         3748.9323      295.49611      10527.71       2956.9052      13484.615      65087.495      87120        
    375500   375500         3749.9175      302.10176      10472.509      3023.0052      13495.514      64914.969      87120        
    375600   375600         3750.8848      301.00557      10442.07       3012.0361      13454.106      64876.969      87120        
    375700   375700         3751.8746      298.18794      10479.034      2983.8413      13462.875      65038.548      87120        
    375800   375800         3752.8557      305.97691      10476.023      3061.7822      13537.805      64964.874      87120        
    375900   375900         3753.8511      303.78696      10491.721      3039.8683      13531.59       65089.741      87120        
    376000   376000         3754.8418      295.68613      10498.295      2958.8067      13457.102      65114.557      87120        
    376100   376100         3755.8016      293.832        10538.527      2940.2532      13478.78       65216.526      87120        
    376200   376200         3756.7873      309.87046      10500.347      3100.7434      13601.09       65105.994      87120        
    376300   376300         3757.7783      299.98955      10582.775      3001.8692      13584.644      65443.507      87120        
    376400   376400         3758.7779      298.20755      10558.257      2984.0375      13542.294      65304.097      87120        
    376500   376500         3759.7648      302.84491      10511.49       3030.4416      13541.931      65236.952      87120        
    376600   376600         3760.7672      296.43158      10575.413      2966.2661      13541.679      65491.516      87120        
    376700   376700         3761.7713      302.74824      10600.89       3029.4743      13630.365      65523.16       87120        
    376800   376800         3762.7758      303.56327      10603.119      3037.6299      13640.749      65518.879      87120        
    376900   376900         3763.7879      304.87684      10535.65       3050.7743      13586.425      65365.076      87120        
    377000   377000         3764.7966      301.78061      10521.851      3019.7916      13541.643      65186.358      87120        
    377100   377100         3765.7687      295.08355      10563.58       2952.7769      13516.357      65420.175      87120        
    377200   377200         3766.7673      297.38803      10601.568      2975.8369      13577.404      65582.901      87120        
    377300   377300         3767.7797      303.36441      10593.144      3035.6401      13628.784      65510.71       87120        
    377400   377400         3768.775       300.89883      10585.649      3010.968       13596.618      65587.072      87120        
    377500   377500         3769.7869      300.26346      10569.894      3004.6101      13574.504      65415.476      87120        
    377600   377600         3770.7936      304.99406      10581.293      3051.9472      13633.24       65416.522      87120        
    377700   377700         3771.7891      306.82249      10547.994      3070.2436      13618.238      65322.871      87120        
    377800   377800         3772.7831      299.62938      10473.384      2998.2652      13471.649      64956.001      87120        
    377900   377900         3773.7744      293.04844      10507.894      2932.4124      13440.306      65064.615      87120        
    378000   378000         3774.7637      304.78387      10446.241      3049.844       13496.085      64910.638      87120        
    378100   378100         3775.7445      304.67256      10480.64       3048.7302      13529.371      64962.486      87120        
    378200   378200         3776.7465      299.90259      10463.643      3000.999       13464.642      64874.396      87120        
    378300   378300         3777.7361      292.99319      10499.409      2931.8596      13431.268      65056.883      87120        
    378400   378400         3778.7234      298.40318      10504.497      2985.9951      13490.492      65092.76       87120        
    378500   378500         3779.7063      299.79434      10519.495      2999.9158      13519.411      65070.673      87120        
    378600   378600         3780.6927      300.03891      10539.986      3002.3632      13542.349      65216.724      87120        
    378700   378700         3781.6651      303.6604       10514.61       3038.6019      13553.211      65079.846      87120        
    378800   378800         3782.6555      299.07156      10471.976      2992.6833      13464.659      64967.744      87120        
    378900   378900         3783.6479      296.81682      10484.227      2970.1211      13454.348      65002.837      87120        
    379000   379000         3784.6395      295.92189      10568.108      2961.1659      13529.273      65274.688      87120        
    379100   379100         3785.6371      305.38934      10559.118      3055.9027      13615.021      65351.735      87120        
    379200   379200         3786.6259      300.05851      10604.466      3002.5593      13607.025      65469.007      87120        
    379300   379300         3787.6258      304.4912       10544.541      3046.9154      13591.456      65316.669      87120        
    379400   379400         3788.6037      296.12927      10609.023      2963.241       13572.265      65484.879      87120        
    379500   379500         3789.6072      297.73871      10595.766      2979.346       13575.112      65515.229      87120        
    379600   379600         3790.6042      304.44291      10592.028      3046.4321      13638.46       65524.653      87120        
    379700   379700         3791.61        317.43461      10562.212      3176.4346      13738.646      65424.933      87120        
    379800   379800         3792.6172      306.62404      10585.607      3068.2577      13653.864      65528.9        87120        
    379900   379900         3793.6188      295.28914      10661.68       2954.8342      13616.514      65745.399      87120        
    380000   380000         3794.6265      301.56049      10581.408      3017.589       13598.997      65463.722      87120        
    380100   380100         3795.6332      298.86127      10594.191      2990.579       13584.77       65518.512      87120        
    380200   380200         3796.64        300.37123      10622.258      3005.6885      13627.946      65576.5        87120        
    380300   380300         3797.6406      307.06645      10585.694      3072.6847      13658.378      65472.592      87120        
    380400   380400         3798.6433      305.34393      10543.52       3055.4482      13598.968      65317.618      87120        
    380500   380500         3799.6445      297.43884      10494.634      2976.3453      13470.979      65055.808      87120        
    380600   380600         3800.6262      295.72392      10503.384      2959.1849      13462.569      65123.023      87120        
    380700   380700         3801.6184      296.85901      10544.155      2970.5433      13514.698      65253.558      87120        
    380800   380800         3802.5964      301.03313      10566.033      3012.3119      13578.345      65346.383      87120        
    380900   380900         3803.5854      302.1759       10539.606      3023.7471      13563.353      65271.393      87120        
    381000   381000         3804.5721      299.61973      10487.337      2998.1686      13485.506      65026.036      87120        
    381100   381100         3805.5292      297.25752      10475.161      2974.5309      13449.692      64938.866      87120        
    381200   381200         3806.5089      303.05425      10450.796      3032.5364      13483.333      64926.498      87120        
    381300   381300         3807.4801      305.33491      10547.972      3055.358       13603.33       65203.134      87120        
    381400   381400         3808.4733      305.11467      10566.125      3053.1542      13619.279      65346.846      87120        
    381500   381500         3809.4681      304.12302      10490.482      3043.2311      13533.713      65095.773      87120        
    381600   381600         3810.4635      297.54235      10518.333      2977.3811      13495.714      65123.013      87120        
    381700   381700         3811.4605      301.63815      10482.969      3018.3661      13501.335      65074.031      87120        
    381800   381800         3812.4578      300.62717      10494.055      3008.2496      13502.305      65115.353      87120        
    381900   381900         3813.4497      302.31678      10515.395      3025.1568      13540.552      65166.911      87120        
    382000   382000         3814.4643      302.79014      10571.772      3029.8936      13601.666      65432.054      87120        
    382100   382100         3815.4457      299.87283      10580.168      3000.7012      13580.869      65454.177      87120        
    382200   382200         3816.4403      294.3146       10544.061      2945.0824      13489.143      65291.792      87120        
    382300   382300         3817.4411      297.51592      10520.272      2977.1167      13497.388      65215.939      87120        
    382400   382400         3818.4425      302.46498      10520.064      3026.6398      13546.704      65148.682      87120        
    382500   382500         3819.4665      301.463        10536.722      3016.6134      13553.336      65256.575      87120        
    382600   382600         3820.4738      298.42843      10540.273      2986.2478      13526.521      65332.688      87120        
    382700   382700         3821.4832      301.61508      10525.224      3018.1352      13543.359      65191.483      87120        
    382800   382800         3822.4967      306.0238       10532.901      3062.2515      13595.153      65212.762      87120        
    382900   382900         3823.4974      300.13177      10535.327      3003.2923      13538.62       65224.601      87120        
    383000   383000         3824.5199      299.11523      10456.022      2993.1203      13449.142      64949.624      87120        
    383100   383100         3825.5185      287.15348      10560.717      2873.424       13434.141      65270.451      87120        
    383200   383200         3826.511       301.66559      10537.017      3018.6406      13555.658      65283.098      87120        
    383300   383300         3827.5148      301.44254      10566.552      3016.4087      13582.961      65399.387      87120        
    383400   383400         3828.5139      300.11407      10543.548      3003.1153      13546.663      65312.792      87120        
    383500   383500         3829.5004      293.15814      10590.872      2933.5102      13524.382      65462.163      87120        
    383600   383600         3830.5012      300.47091      10601.525      3006.686       13608.212      65474.259      87120        
    383700   383700         3831.5192      305.24622      10604.334      3054.4705      13658.804      65563.144      87120        
    383800   383800         3832.5283      298.93628      10616.097      2991.3296      13607.427      65572.118      87120        
    383900   383900         3833.5405      295.82687      10568.103      2960.2151      13528.318      65374.884      87120        
    384000   384000         3834.5507      295.6733       10544.247      2958.6783      13502.925      65265.406      87120        
    384100   384100         3835.5319      297.01812      10537.905      2972.1354      13510.04       65245.484      87120        
    384200   384200         3836.525       302.47759      10495.909      3026.766       13522.675      65131.597      87120        
    384300   384300         3837.5132      303.30628      10467.888      3035.0584      13502.947      64978.576      87120        
    384400   384400         3838.5099      297.7338       10514.563      2979.2969      13493.86       65130.045      87120        
    384500   384500         3839.5126      296.33891      10547.809      2965.3388      13513.148      65228.95       87120        
    384600   384600         3840.5136      301.94553      10551.336      3021.4419      13572.778      65271.779      87120        
    384700   384700         3841.5182      308.17104      10490.501      3083.738       13574.239      65092.444      87120        
    384800   384800         3842.5124      302.43665      10422.422      3026.3564      13448.779      64819.658      87120        
    384900   384900         3843.522       293.82493      10468.863      2940.1824      13409.045      64946.24       87120        
    385000   385000         3844.517       302.30124      10442.038      3025.0013      13467.039      64898.435      87120        
    385100   385100         3845.5025      298.52299      10540.466      2987.194       13527.66       65221.356      87120        
    385200   385200         3846.4956      306.70689      10480.786      3069.0869      13549.873      65098.14       87120        
    385300   385300         3847.4924      289.95369      10572.54       2901.4447      13473.985      65343.756      87120        
    385400   385400         3848.4896      304.20682      10443.857      3044.0697      13487.926      64952.13       87120        
    385500   385500         3849.4915      307.29788      10515.336      3075.0006      13590.337      65228.975      87120        
    385600   385600         3850.4974      310.21065      10535.915      3104.1474      13640.063      65332.554      87120        
    385700   385700         3851.5031      296.43022      10550.002      2966.2525      13516.254      65309.444      87120        
    385800   385800         3852.5156      296.95154      10552.024      2971.4692      13523.493      65364.125      87120        
    385900   385900         3853.5047      296.54006      10602.981      2967.3517      13570.333      65558.64       87120        
    386000   386000         3854.5109      307.78442      10587.383      3079.8692      13667.252      65514.702      87120        
    386100   386100         3855.5152      306.46219      10602.231      3066.6382      13668.869      65514.493      87120        
    386200   386200         3856.5174      303.26865      10570.146      3034.6818      13604.828      65497.044      87120        
    386300   386300         3857.525       300.52685      10536.647      3007.2457      13543.892      65269.757      87120        
    386400   386400         3858.5269      298.61456      10503.777      2988.1103      13491.887      65228.289      87120        
    386500   386500         3859.5119      296.12193      10518.48       2963.1676      13481.648      65245.896      87120        
    386600   386600         3860.5297      302.34336      10551.898      3025.4229      13577.32       65278.232      87120        
    386700   386700         3861.5439      307.27177      10470.288      3074.7394      13545.028      65033.562      87120        
    386800   386800         3862.549       295.61747      10511.534      2958.1197      13469.654      65212.447      87120        
    386900   386900         3863.548       297.10291      10473.584      2972.9839      13446.568      64957.239      87120        
    387000   387000         3864.5269      299.72534      10510.573      2999.2254      13509.798      65112.53       87120        
    387100   387100         3865.5042      305.95842      10485.939      3061.5972      13547.536      65042.268      87120        
    387200   387200         3866.4845      296.67493      10543.327      2968.7012      13512.028      65207.702      87120        
    387300   387300         3867.4678      295.67348      10490.616      2958.6801      13449.296      65030.073      87120        
    387400   387400         3868.4572      295.06719      10471.411      2952.6133      13424.024      64889.389      87120        
    387500   387500         3869.4472      311.45392      10425.363      3116.5883      13541.951      64756.278      87120        
    387600   387600         3870.4489      302.70946      10484.323      3029.0863      13513.409      64938.476      87120        
    387700   387700         3871.4463      304.05978      10424.387      3042.5983      13466.986      64831.179      87120        
    387800   387800         3872.4157      291.44388      10535.167      2916.3563      13451.523      65186.193      87120        
    387900   387900         3873.4082      299.19681      10526.81       2993.9366      13520.747      65152.807      87120        
    388000   388000         3874.4042      303.6758       10565.121      3038.756       13603.877      65328.976      87120        
    388100   388100         3875.3888      302.57233      10575.877      3027.714       13603.591      65436.365      87120        
    388200   388200         3876.3723      300.03569      10600.949      3002.331       13603.28       65518.524      87120        
    388300   388300         3877.3606      302.94434      10563.325      3031.4366      13594.761      65409.247      87120        
    388400   388400         3878.364       299.83641      10583.282      3000.3369      13583.619      65439.83       87120        
    388500   388500         3879.3591      300.37393      10576.44       3005.7156      13582.155      65448.195      87120        
    388600   388600         3880.3652      299.01264      10624.652      2992.0937      13616.746      65677.668      87120        
    388700   388700         3881.3676      307.6759       10557.786      3078.7833      13636.569      65393.149      87120        
    388800   388800         3882.3736      295.70739      10607.119      2959.0195      13566.138      65486.813      87120        
    388900   388900         3883.3791      291.35352      10590.367      2915.4521      13505.819      65485.354      87120        
    389000   389000         3884.39        299.98809      10538.294      3001.8546      13540.148      65296.784      87120        
    389100   389100         3885.3807      298.39855      10547.003      2985.9488      13532.951      65251.641      87120        
    389200   389200         3886.3702      302.39787      10475.421      3025.9682      13501.389      65025.803      87120        
    389300   389300         3887.3673      293.62935      10529.27       2938.2254      13467.495      65109.51       87120        
    389400   389400         3888.3675      300.7646       10506.035      3009.6249      13515.66       65037.542      87120        
    389500   389500         3889.3594      305.94282      10531.746      3061.4411      13593.187      65186.439      87120        
    389600   389600         3890.3503      310.11024      10450.495      3103.1427      13553.638      64916.629      87120        
    389700   389700         3891.3409      298.95187      10505.07       2991.4856      13496.555      65044.452      87120        
    389800   389800         3892.3264      302.09403      10467.185      3022.9278      13490.113      64987.455      87120        
    389900   389900         3893.3122      297.60997      10506.69       2978.0578      13484.748      65110.666      87120        
    390000   390000         3894.2961      299.32182      10477.013      2995.1875      13472.201      64963.804      87120        
    390100   390100         3895.2723      303.60218      10450.668      3038.0193      13488.687      64878.605      87120        
    390200   390200         3896.2702      301.49109      10511.217      3016.8945      13528.111      65120.434      87120        
    390300   390300         3897.2543      304.30645      10466.475      3045.0667      13511.542      64966.579      87120        
    390400   390400         3898.2512      294.56072      10506.859      2947.5453      13454.404      65145.106      87120        
    390500   390500         3899.2419      294.69728      10545.223      2948.9117      13494.135      65259.54       87120        
    390600   390600         3900.2666      302.30484      10553.755      3025.0374      13578.792      65333.514      87120        
    390700   390700         3901.2959      301.75449      10618.612      3019.5302      13638.143      65567.457      87120        
    390800   390800         3902.3047      303.03304      10593.342      3032.3241      13625.666      65546.886      87120        
    390900   390900         3903.2976      293.38509      10605.919      2935.7811      13541.7        65595.571      87120        
    391000   391000         3904.3075      296.20114      10612.337      2963.9602      13576.298      65558.009      87120        
    391100   391100         3905.307       299.71503      10650.484      2999.1222      13649.606      65697.229      87120        
    391200   391200         3906.3417      303.82827      10590.234      3040.2817      13630.516      65482.1        87120        
    391300   391300         3907.365       304.45138      10532.081      3046.5169      13578.598      65324.298      87120        
    391400   391400         3908.3822      298.46425      10562.961      2986.6062      13549.567      65449.754      87120        
    391500   391500         3909.3951      301.19029      10519.805      3013.8845      13533.69       65212.889      87120        
    391600   391600         3910.3852      302.23516      10499.761      3024.3401      13524.101      65136.846      87120        
    391700   391700         3911.3921      298.73111      10563.5        2989.2766      13552.777      65375.374      87120        
    391800   391800         3912.3768      299.09904      10549.766      2992.9583      13542.724      65208.361      87120        
    391900   391900         3913.3928      302.78317      10488.646      3029.8238      13518.47       65074.948      87120        
    392000   392000         3914.3942      293.51703      10476.528      2937.1014      13413.63       65024.821      87120        
    392100   392100         3915.3669      289.30328      10523.662      2894.9362      13418.598      65103.631      87120        
    392200   392200         3916.3447      296.90831      10535.113      2971.0365      13506.149      65264          87120        
    392300   392300         3917.3346      299.99         10519.757      3001.8738      13521.631      65165.744      87120        
    392400   392400         3918.3281      296.67575      10516.34       2968.7095      13485.049      65086.14       87120        
    392500   392500         3919.3159      300.84804      10464.259      3010.4598      13474.719      64960.855      87120        
    392600   392600         3920.3165      295.79855      10513.122      2959.9317      13473.053      65093.29       87120        
    392700   392700         3921.3161      304.99343      10490.457      3051.9409      13542.398      65038.571      87120        
    392800   392800         3922.3102      305.4809       10497.701      3056.8188      13554.52       65074.881      87120        
    392900   392900         3923.3034      300.73656      10457.226      3009.3443      13466.57       64968.576      87120        
    393000   393000         3924.3008      294.68167      10505.818      2948.7555      13454.573      65166.642      87120        
    393100   393100         3925.2665      302.62051      10480.275      3028.1961      13508.471      65095.586      87120        
    393200   393200         3926.2519      299.05942      10552.337      2992.5618      13544.898      65268.199      87120        
    393300   393300         3927.2455      299.27295      10571.859      2994.6986      13566.558      65367.677      87120        
    393400   393400         3928.251       298.15903      10619.238      2983.552       13602.79       65604.57       87120        
    393500   393500         3929.2631      302.94161      10580.703      3031.4092      13612.112      65477.66       87120        
    393600   393600         3930.2722      296.85986      10617.276      2970.5518      13587.828      65578.25       87120        
    393700   393700         3931.2875      299.21003      10524.336      2994.0689      13518.405      65293.383      87120        
    393800   393800         3932.3025      290.11811      10521.065      2903.0899      13424.155      65214.219      87120        
    393900   393900         3933.3027      294.42004      10569.306      2946.1375      13515.443      65409.425      87120        
    394000   394000         3934.3156      297.94551      10592.984      2981.4154      13574.399      65467.22       87120        
    394100   394100         3935.3237      302.60591      10560.76       3028.05        13588.811      65317.052      87120        
    394200   394200         3936.3213      301.43275      10522.324      3016.3107      13538.635      65231.514      87120        
    394300   394300         3937.3189      296.44357      10512.477      2966.3862      13478.863      65195.671      87120        
    394400   394400         3938.3185      295.26611      10562.033      2954.6037      13516.637      65376.847      87120        
    394500   394500         3939.3232      303.84357      10577.218      3040.4348      13617.653      65456.47       87120        
    394600   394600         3940.3377      301.88582      10574.998      3020.8444      13595.843      65438.208      87120        
    394700   394700         3941.3433      300.58         10528.867      3007.7776      13536.645      65269.171      87120        
    394800   394800         3942.3475      298.82219      10483.636      2990.1879      13473.824      65135.57       87120        
    394900   394900         3943.3471      291.2657       10547.039      2914.5733      13461.613      65270.883      87120        
    395000   395000         3944.3553      305.81344      10512.944      3060.1464      13573.091      65183.399      87120        
    395100   395100         3945.3397      303.03777      10537.455      3032.3714      13569.827      65278.605      87120        
    395200   395200         3946.3343      302.51971      10498.116      3027.1875      13525.303      65123.537      87120        
    395300   395300         3947.3402      298.02109      10479.319      2982.1716      13461.491      65050.385      87120        
    395400   395400         3948.3402      292.82044      10464.483      2930.131       13394.614      65029.345      87120        
    395500   395500         3949.3397      295.86664      10460.76       2960.613       13421.373      64996.411      87120        
    395600   395600         3950.3584      299.05151      10528.217      2992.4826      13520.7        65168.014      87120        
    395700   395700         3951.3605      304.42814      10497.898      3046.2843      13544.182      65130.352      87120        
    395800   395800         3952.3745      304.64132      10498.611      3048.4175      13547.029      65141.073      87120        
    395900   395900         3953.3684      295.85171      10533.972      2960.4636      13494.435      65237.925      87120        
    396000   396000         3954.3495      293.47409      10539.34       2936.6718      13476.011      65252.59       87120        
    396100   396100         3955.3425      305.2268       10535.345      3054.2762      13589.621      65385.667      87120        
    396200   396200         3956.3429      304.20031      10626.811      3044.0046      13670.815      65647.658      87120        
    396300   396300         3957.3382      306.56247      10551.115      3067.6416      13618.757      65377.39       87120        
    396400   396400         3958.3439      294.63085      10598.696      2948.247       13546.943      65518.769      87120        
    396500   396500         3959.3581      300.25274      10532.024      3004.5029      13536.526      65222.471      87120        
    396600   396600         3960.3743      300.52053      10559.498      3007.1826      13566.68       65379.199      87120        
    396700   396700         3961.3679      298.11936      10606.077      2983.1551      13589.232      65593.481      87120        
    396800   396800         3962.3719      305.11997      10601.44       3053.2072      13654.648      65527.859      87120        
    396900   396900         3963.3739      316.21905      10563.147      3164.271       13727.418      65457.741      87120        
    397000   397000         3964.3751      301.89735      10609.605      3020.9597      13630.565      65572.751      87120        
    397100   397100         3965.3591      303.23953      10557.587      3034.3904      13591.977      65386.692      87120        
    397200   397200         3966.3468      300.26109      10533.049      3004.5864      13537.636      65248.571      87120        
    397300   397300         3967.3343      299.78222      10534.828      2999.7946      13534.622      65299.356      87120        
    397400   397400         3968.3179      304.75097      10519.606      3049.5148      13569.12       65170.161      87120        
    397500   397500         3969.3145      305.83688      10539.355      3060.381       13599.736      65248.447      87120        
    397600   397600         3970.3104      296.22168      10574.521      2964.1657      13538.687      65363.779      87120        
    397700   397700         3971.3064      294.59979      10493.392      2947.9361      13441.328      64998.125      87120        
    397800   397800         3972.2861      300.15462      10430.686      3003.521       13434.207      64794.209      87120        
    397900   397900         3973.2811      309.58371      10456.952      3097.874       13554.826      64962.179      87120        
    398000   398000         3974.2658      307.33943      10479.737      3075.4163      13555.154      65007.788      87120        
    398100   398100         3975.2396      299.8769       10472.645      3000.742       13473.387      64938.886      87120        
    398200   398200         3976.2129      302.32277      10415.704      3025.2168      13440.92       64741.174      87120        
    398300   398300         3977.1801      296.95636      10489.688      2971.5173      13461.206      65014.015      87120        
    398400   398400         3978.1815      305.11747      10508.842      3053.1822      13562.024      65118.864      87120        
    398500   398500         3979.1867      309.84011      10523.45       3100.4396      13623.889      65216.507      87120        
    398600   398600         3980.1697      303.56485      10494.671      3037.6457      13532.317      65036.914      87120        
    398700   398700         3981.1637      301.93156      10492.588      3021.3021      13513.89       65099.393      87120        
    398800   398800         3982.1599      298.91841      10542.299      2991.1508      13533.45       65232.581      87120        
    398900   398900         3983.1472      303.38938      10521.852      3035.8899      13557.742      65238.192      87120        
    399000   399000         3984.1154      299.61712      10539.359      2998.1424      13537.502      65336.634      87120        
    399100   399100         3985.0974      291.28794      10588.175      2914.7959      13502.971      65427.074      87120        
    399200   399200         3986.0948      299.33634      10602.39       2995.3328      13597.723      65474.699      87120        
    399300   399300         3987.0898      304.69588      10585.766      3048.9635      13634.729      65470.026      87120        
    399400   399400         3988.0735      299.0461       10572.33       2992.4285      13564.758      65408.602      87120        
    399500   399500         3989.085       301.44069      10535.986      3016.3902      13552.376      65296.105      87120        
    399600   399600         3990.0992      301.91433      10513.739      3021.1297      13534.869      65204.02       87120        
    399700   399700         3991.0986      294.10678      10557.6        2943.0028      13500.602      65407.597      87120        
    399800   399800         3992.0988      302.24263      10545.798      3024.4148      13570.213      65353.621      87120        
    399900   399900         3993.0858      306.65579      10552.546      3068.5755      13621.121      65342.131      87120        
    400000   400000         3994.0711      303.9347       10518.946      3041.3467      13560.293      65205.978      87120        
    400100   400100         3995.06        299.61085      10511.142      2998.0798      13509.222      65172.556      87120        
    400200   400200         3996.0575      291.49414      10613.304      2916.8592      13530.163      65527.532      87120        
    400300   400300         3997.0651      300.17225      10588.191      3003.6974      13591.889      65468.051      87120        
    400400   400400         3998.0657      299.092        10578.746      2992.8878      13571.634      65398.681      87120        
    400500   400500         3999.0751      305.34388      10485.041      3055.4478      13540.489      65102.263      87120        
    400600   400600         4000.0965      290.08104      10510.793      2902.7189      13413.512      65092.672      87120        
    400700   400700         4001.0862      295.958        10458.526      2961.5272      13420.053      64945.194      87120        
    400800   400800         4002.0782      298.38337      10510.246      2985.7969      13496.043      65162.871      87120        
    400900   400900         4003.0686      296.9257       10579.616      2971.2106      13550.827      65343.62       87120        
    401000   401000         4004.0706      299.18658      10550.587      2993.8342      13544.422      65327.975      87120        
    401100   401100         4005.0584      294.14877      10534.113      2943.423       13477.536      65216.807      87120        
    401200   401200         4006.0545      291.5753       10561.751      2917.6714      13479.423      65319.341      87120        
    401300   401300         4007.0489      303.41488      10571.793      3036.145       13607.938      65461.582      87120        
    401400   401400         4008.0494      303.05153      10586.124      3032.5091      13618.634      65501.54       87120        
    401500   401500         4009.0417      302.69676      10546.476      3028.9591      13575.435      65311.079      87120        
    401600   401600         4010.037       297.37445      10510.262      2975.701       13485.963      65201.078      87120        
    401700   401700         4011.0463      299.51565      10506.903      2997.1272      13504.03       65114.717      87120        
    401800   401800         4012.0511      300.04779      10547.571      3002.452       13550.023      65313.979      87120        
    401900   401900         4013.0613      304.19911      10524.887      3043.9925      13568.88       65275.501      87120        
    402000   402000         4014.0605      299.76321      10527.394      2999.6044      13526.998      65201.637      87120        
    402100   402100         4015.0456      299.73234      10521.761      2999.2955      13521.057      65215.38       87120        
    402200   402200         4016.0411      296.61252      10540.39       2968.0768      13508.467      65206.527      87120        
    402300   402300         4017.0128      299.4587       10521.093      2996.5572      13517.651      65122.714      87120        
    402400   402400         4017.9951      302.5198       10504.267      3027.1884      13531.455      65127.694      87120        
    402500   402500         4018.9885      298.05027      10529.494      2982.4637      13511.958      65179.429      87120        
    402600   402600         4019.9875      300.2947       10514.758      3004.9228      13519.681      65158.86       87120        
    402700   402700         4020.9672      302.70434      10509.862      3029.035       13538.897      65157.565      87120        
    402800   402800         4021.9575      296.62873      10564.1        2968.2389      13532.339      65345.996      87120        
    402900   402900         4022.9481      292.6068       10545.603      2927.9932      13473.597      65348.119      87120        
    403000   403000         4023.9425      296.649        10571.793      2968.4418      13540.234      65345.31       87120        
    403100   403100         4024.9174      307.23076      10529.683      3074.329       13604.012      65256.115      87120        
    403200   403200         4025.9082      298.74168      10541.305      2989.3823      13530.687      65235.903      87120        
    403300   403300         4026.8951      300.97249      10478.893      3011.7051      13490.598      65069.28       87120        
    403400   403400         4027.8733      293.86289      10536.128      2940.5624      13476.69       65187.238      87120        
    403500   403500         4028.8872      301.62289      10514.453      3018.2134      13532.667      65169.508      87120        
    403600   403600         4029.8836      299.14118      10561.477      2993.3799      13554.857      65331.498      87120        
    403700   403700         4030.8622      301.93659      10559.074      3021.3525      13580.426      65399.253      87120        
    403800   403800         4031.8621      303.76633      10526.385      3039.6619      13566.047      65289.962      87120        
    403900   403900         4032.8789      291.38864      10595.97       2915.8036      13511.774      65462.936      87120        
    404000   404000         4033.8643      296.3952       10562.094      2965.9021      13527.996      65382.983      87120        
    404100   404100         4034.8539      306.52813      10531.718      3067.298       13599.016      65228.834      87120        
    404200   404200         4035.8442      310.14519      10481.294      3103.4925      13584.787      65108.398      87120        
    404300   404300         4036.8424      295.14571      10541.544      2953.3989      13494.943      65226.837      87120        
    404400   404400         4037.8345      299.55347      10510.418      2997.5055      13507.924      65147.462      87120        
    404500   404500         4038.8405      298.11767      10536.011      2983.1381      13519.149      65249.17       87120        
    404600   404600         4039.8286      304.21182      10520.652      3044.1197      13564.772      65227.836      87120        
    404700   404700         4040.7985      303.51225      10625.569      3037.1195      13662.688      65588.157      87120        
    404800   404800         4041.7892      307.87968      10553.112      3080.8224      13633.934      65337.568      87120        
    404900   404900         4042.7856      304.82258      10522.466      3050.2313      13572.697      65126.838      87120        
    405000   405000         4043.7777      301.01709      10527.403      3012.1514      13539.554      65147.732      87120        
    405100   405100         4044.7517      293.72762      10561.238      2939.2087      13500.447      65335.511      87120        
    405200   405200         4045.732       297.83511      10553.674      2980.3107      13533.985      65265.558      87120        
    405300   405300         4046.7147      305.87243      10588.041      3060.7367      13648.778      65435.592      87120        
    405400   405400         4047.7286      302.82013      10577.356      3030.1936      13607.55       65399.174      87120        
    405500   405500         4048.7472      299.17653      10548.282      2993.7337      13542.016      65262.21       87120        
    405600   405600         4049.7353      298.73104      10556.383      2989.2758      13545.658      65330.31       87120        
    405700   405700         4050.7449      300.22288      10553.548      3004.2041      13557.752      65287.273      87120        
    405800   405800         4051.7466      298.16776      10541.839      2983.6394      13525.479      65226.535      87120        
    405900   405900         4052.7515      294.71954      10535.487      2949.1344      13484.622      65249.921      87120        
    406000   406000         4053.7359      302.35742      10542.746      3025.5636      13568.31       65273.242      87120        
    406100   406100         4054.7174      305.74058      10544.572      3059.4174      13603.989      65316.446      87120        
    406200   406200         4055.7086      305.05068      10515.81       3052.5139      13568.323      65251.68       87120        
    406300   406300         4056.6891      296.77118      10531.135      2969.6643      13500.8        65204.26       87120        
    406400   406400         4057.6838      296.42202      10536.914      2966.1705      13503.084      65290.873      87120        
    406500   406500         4058.6843      297.91128      10548.676      2981.0729      13529.749      65329.394      87120        
    406600   406600         4059.695       300.86724      10589.812      3010.6519      13600.463      65389.863      87120        
    406700   406700         4060.6867      309.4562       10565.816      3096.598       13662.414      65408.615      87120        
    406800   406800         4061.6811      301.04053      10599.263      3012.386       13611.649      65466.225      87120        
    406900   406900         4062.6787      302.54563      10541.109      3027.4468      13568.556      65291.029      87120        
    407000   407000         4063.6766      298.90727      10538.403      2991.0393      13529.442      65314.211      87120        
    407100   407100         4064.6747      295.41092      10560.477      2956.0528      13516.53       65334.883      87120        
    407200   407200         4065.6717      301.31347      10517.633      3015.1172      13532.75       65192.512      87120        
    407300   407300         4066.6667      299.72145      10493.284      2999.1865      13492.47       65135.844      87120        
    407400   407400         4067.6616      294.67455      10522.848      2948.6843      13471.533      65229.557      87120        
    407500   407500         4068.6448      297.83084      10590.823      2980.2679      13571.091      65472.75       87120        
    407600   407600         4069.6561      306.53335      10539.25       3067.3503      13606.6        65341.718      87120        
    407700   407700         4070.6782      297.46174      10599.548      2976.5745      13576.122      65563.932      87120        
    407800   407800         4071.6753      298.70766      10578.439      2989.0419      13567.481      65528.012      87120        
    407900   407900         4072.683       303.92879      10610.366      3041.2875      13651.653      65596.919      87120        
    408000   408000         4073.695       306.13566      10627.87       3063.3707      13691.241      65652.987      87120        
    408100   408100         4074.6964      303.72031      10584.465      3039.2014      13623.666      65486.429      87120        
    408200   408200         4075.6922      297.46163      10560.236      2976.5734      13536.81       65411.135      87120        
    408300   408300         4076.6933      295.13574      10551.945      2953.2992      13505.244      65288.243      87120        
    408400   408400         4077.6982      302.44039      10515.18       3026.3938      13541.574      65225.603      87120        
    408500   408500         4078.6927      306.17019      10538.711      3063.7163      13602.427      65232.447      87120        
    408600   408600         4079.6858      302.5207       10544.915      3027.1973      13572.112      65294.71       87120        
    408700   408700         4080.6826      292.03853      10502.961      2922.3068      13425.268      65109.789      87120        
    408800   408800         4081.6574      295.93847      10462.134      2961.3318      13423.465      64925.348      87120        
    408900   408900         4082.6472      299.11341      10486.178      2993.1021      13479.28       65048.498      87120        
    409000   409000         4083.6398      302.46244      10501.869      3026.6144      13528.484      65114.069      87120        
    409100   409100         4084.6094      299.96431      10537.953      3001.6166      13539.569      65202.18       87120        
    409200   409200         4085.5899      295.21506      10462.726      2954.0929      13416.819      64965.203      87120        
    409300   409300         4086.5607      293.16867      10458.996      2933.6155      13392.611      64930.487      87120        
    409400   409400         4087.5437      297.59442      10458.537      2977.9022      13436.439      64876.311      87120        
    409500   409500         4088.5248      301.72067      10452.609      3019.1918      13471.8        64916.23       87120        
    409600   409600         4089.5079      302.07376      10457.035      3022.725       13479.76       64941.642      87120        
    409700   409700         4090.4894      302.00284      10478.253      3022.0154      13500.268      64999.067      87120        
    409800   409800         4091.4712      304.66409      10423.406      3048.6454      13472.052      64884.271      87120        
    409900   409900         4092.4663      294.58993      10511.964      2947.8375      13459.802      65179.954      87120        
    410000   410000         4093.4694      300.41203      10503.16       3006.0968      13509.257      65138.027      87120        
    410100   410100         4094.4565      302.04894      10544.039      3022.4767      13566.516      65343.83       87120        
    410200   410200         4095.4423      301.4368       10606.428      3016.3513      13622.779      65516.787      87120        
    410300   410300         4096.4371      305.29843      10572.472      3054.9929      13627.465      65439.359      87120        
    410400   410400         4097.4129      293.7853       10565.018      2939.7859      13504.803      65345.445      87120        
    410500   410500         4098.4219      295.28967      10510.537      2954.8395      13465.377      65170.692      87120        
    410600   410600         4099.4113      301.91473      10522.001      3021.1337      13543.134      65250.8        87120        
    410700   410700         4100.4244      299.51897      10611.065      2997.1603      13608.225      65585.779      87120        
    410800   410800         4101.4155      301.48504      10562.16       3016.834       13578.994      65388.138      87120        
    410900   410900         4102.4299      297.05618      10569.313      2972.5162      13541.829      65372.287      87120        
    411000   411000         4103.4178      300.44111      10516.397      3006.3878      13522.785      65243.361      87120        
    411100   411100         4104.4058      297.65484      10524.06       2978.5067      13502.566      65223.415      87120        
    411200   411200         4105.3795      301.44822      10494.907      3016.4656      13511.372      65029.575      87120        
    411300   411300         4106.3624      300.34184      10495.341      3005.3945      13500.735      65090.656      87120        
    411400   411400         4107.3436      301.96362      10476.307      3021.6229      13497.93       65047.115      87120        
    411500   411500         4108.3389      295.38532      10480.603      2955.7966      13436.4        65008.969      87120        
    411600   411600         4109.3143      283.53811      10506.899      2837.2466      13344.145      65120.766      87120        
    411700   411700         4110.3018      298.7542       10454.108      2989.5076      13443.616      64945.149      87120        
    411800   411800         4111.2909      298.66596      10524.366      2988.6247      13512.99       65165.465      87120        
    411900   411900         4112.2869      305.78384      10500.547      3059.8503      13560.398      65159.389      87120        
    412000   412000         4113.2614      302.51096      10481.903      3027.0999      13509.003      65066.281      87120        
    412100   412100         4114.2432      296.19125      10490.139      2963.8613      13454          65029.331      87120        
    412200   412200         4115.2329      295.2919       10554.944      2954.8619      13509.806      65374.086      87120        
    412300   412300         4116.203       302.09684      10528.372      3022.956       13551.328      65225.504      87120        
    412400   412400         4117.1921      298.15641      10583.274      2983.5258      13566.8        65414.152      87120        
    412500   412500         4118.1979      298.66337      10571.778      2988.5987      13560.376      65417.03       87120        
    412600   412600         4119.1973      300.40082      10544.042      3005.9847      13550.027      65302.898      87120        
    412700   412700         4120.2026      296.41551      10566.802      2966.1053      13532.907      65356.7        87120        
    412800   412800         4121.2006      299.92782      10582.196      3001.2515      13583.447      65392.898      87120        
    412900   412900         4122.2025      314.09987      10506.499      3143.0652      13649.564      65187.42       87120        
    413000   413000         4123.1996      303.84895      10504.895      3040.4886      13545.383      65169.561      87120        
    413100   413100         4124.18        296.41182      10526.017      2966.0684      13492.085      65147.898      87120        
    413200   413200         4125.1592      294.11673      10502.737      2943.1024      13445.84       65138.759      87120        
    413300   413300         4126.1413      298.57747      10473.524      2987.7391      13461.263      64908.866      87120        
    413400   413400         4127.1381      306.72262      10459.147      3069.2443      13528.391      64902.38       87120        
    413500   413500         4128.1168      299.24725      10500.934      2994.4414      13495.376      65095.193      87120        
    413600   413600         4129.1058      297.99815      10477.231      2981.9422      13459.173      64986.737      87120        
    413700   413700         4130.1079      303.64745      10405.773      3038.4723      13444.245      64715.532      87120        
    413800   413800         4131.0863      294.3467       10507.765      2945.4036      13453.169      65056.886      87120        
    413900   413900         4132.0743      299.3784       10526.274      2995.7537      13522.028      65142.705      87120        
    414000   414000         4133.0758      298.53748      10605.799      2987.339       13593.138      65464.304      87120        
    414100   414100         4134.0614      315.35867      10491.935      3155.6615      13647.596      65167.967      87120        
    414200   414200         4135.0413      302.68438      10509.391      3028.8352      13538.226      65152.305      87120        
    414300   414300         4136.0099      297.17492      10531.789      2973.7044      13505.493      65254.64       87120        
    414400   414400         4136.9983      300.90838      10535.824      3011.0636      13546.887      65330.218      87120        
    414500   414500         4137.9912      304.70422      10557.996      3049.047       13607.043      65398.861      87120        
    414600   414600         4138.9936      305.72091      10593.392      3059.2205      13652.613      65511.284      87120        
    414700   414700         4139.9845      299.94491      10581.83       3001.4225      13583.253      65514.047      87120        
    414800   414800         4141.005       298.1308       10577.697      2983.2695      13560.967      65485.948      87120        
    414900   414900         4142.0199      298.98404      10614.832      2991.8076      13606.64       65611.915      87120        
    415000   415000         4143.0341      302.19403      10647.011      3023.9286      13670.94       65778.685      87120        
    415100   415100         4144.0305      303.77664      10594.95       3039.7651      13634.715      65535.803      87120        
    415200   415200         4145.0413      294.06717      10565.969      2942.6065      13508.576      65467.298      87120        
    415300   415300         4146.0567      295.32835      10585.556      2955.2266      13540.782      65578.145      87120        
    415400   415400         4147.0652      301.82751      10577.05       3020.2609      13597.311      65496.281      87120        
    415500   415500         4148.0642      302.35357      10553.879      3025.525       13579.404      65410.379      87120        
    415600   415600         4149.077       295.02698      10552.403      2952.2109      13504.614      65352.069      87120        
    415700   415700         4150.089       291.8979       10553.454      2920.8995      13474.353      65296.476      87120        
    415800   415800         4151.0929      301.23298      10563.14       3014.3117      13577.452      65377.772      87120        
    415900   415900         4152.0773      297.86435      10578.056      2980.6033      13558.659      65398.411      87120        
    416000   416000         4153.0904      302.75422      10514.488      3029.5341      13544.022      65172.937      87120        
    416100   416100         4154.0877      304.59898      10487.215      3047.9939      13535.209      65099.275      87120        
    416200   416200         4155.0702      293.09307      10518.127      2932.859       13450.986      65188.997      87120        
    416300   416300         4156.0538      294.90141      10507.776      2950.9544      13458.73       65124.968      87120        
    416400   416400         4157.0482      300.7227       10521.236      3009.2055      13530.441      65145.206      87120        
    416500   416500         4158.0323      310.38743      10430.818      3105.9165      13536.735      64837.873      87120        
    416600   416600         4159.015       298.66043      10479.585      2988.5693      13468.154      64953.609      87120        
    416700   416700         4160.0107      294.90359      10490.744      2950.9761      13441.72       64980.197      87120        
    416800   416800         4161.0042      298.78547      10500.9        2989.8205      13490.721      65066.903      87120        
    416900   416900         4161.974       302.09931      10520.225      3022.9807      13543.205      65188.31       87120        
    417000   417000         4162.9848      299.30597      10584.037      2995.0289      13579.066      65449.378      87120        
    417100   417100         4163.9724      302.29844      10546.316      3024.9733      13571.289      65240.821      87120        
    417200   417200         4164.961       297.41629      10546.334      2976.1197      13522.453      65334.101      87120        
    417300   417300         4165.9504      299.60402      10482.977      2998.0114      13480.988      65043.767      87120        
    417400   417400         4166.9359      293.09326      10495.489      2932.861       13428.35       65046.955      87120        
    417500   417500         4167.9287      292.46928      10497.612      2926.617       13424.229      65132.891      87120        
    417600   417600         4168.9187      301.00354      10510.587      3012.0158      13522.603      65181.144      87120        
    417700   417700         4169.9033      305.2611       10490.446      3054.6195      13545.065      65076.621      87120        
    417800   417800         4170.8938      301.39189      10506.059      3015.9018      13521.961      65204.438      87120        
    417900   417900         4171.8937      298.54684      10488.869      2987.4327      13476.301      65118.427      87120        
    418000   418000         4172.8993      295.18158      10531.087      2953.7579      13484.845      65241.193      87120        
    418100   418100         4173.8889      304.7078       10566.611      3049.0827      13615.694      65415.058      87120        
    418200   418200         4174.875       304.12506      10537.526      3043.2515      13580.777      65252.734      87120        
    418300   418300         4175.8622      298.15836      10501.715      2983.5453      13485.26       65049.183      87120        
    418400   418400         4176.8319      293.97706      10531.526      2941.7047      13473.23       65253.822      87120        
    418500   418500         4177.8154      302.24973      10486.301      3024.4859      13510.787      65094.89       87120        
    418600   418600         4178.8169      307.24283      10545.261      3074.4498      13619.71       65244.882      87120        
    418700   418700         4179.8281      311.78858      10481.407      3119.9371      13601.344      65155.505      87120        
    418800   418800         4180.8358      297.56845      10503.845      2977.6423      13481.487      65128.94       87120        
    418900   418900         4181.8491      290.28984      10555.632      2904.8083      13460.441      65297.235      87120        
    419000   419000         4182.8429      300.64909      10517.118      3008.469       13525.587      65179.817      87120        
    419100   419100         4183.8256      304.86732      10534.876      3050.6791      13585.555      65218.16       87120        
    419200   419200         4184.8001      301.20764      10557.18       3014.0581      13571.238      65356.459      87120        
    419300   419300         4185.7895      294.26005      10574.427      2944.5365      13518.963      65418.873      87120        
    419400   419400         4186.7855      294.07082      10512.693      2942.643       13455.336      65175.311      87120        
    419500   419500         4187.7717      295.19135      10450.217      2953.8557      13404.072      64919.994      87120        
    419600   419600         4188.768       302.41291      10469.478      3026.1188      13495.597      65055.548      87120        
    419700   419700         4189.759       300.12577      10540.075      3003.2323      13543.307      65223.624      87120        
    419800   419800         4190.7527      303.43823      10518.878      3036.3787      13555.257      65058.837      87120        
    419900   419900         4191.748       299.2051       10511.631      2994.0196      13505.65       65180.426      87120        
    420000   420000         4192.7408      296.70598      10476.947      2969.0119      13445.959      65028.196      87120        
    420100   420100         4193.7324      295.54598      10520.414      2957.4043      13477.818      65122.207      87120        
    420200   420200         4194.7171      300.47236      10522.866      3006.7006      13529.566      65200.329      87120        
    420300   420300         4195.6907      301.55176      10488.551      3017.5016      13506.053      65074.521      87120        
    420400   420400         4196.6806      294.78244      10518.336      2949.7638      13468.1        65139.285      87120        
    420500   420500         4197.6674      293.28072      10477.878      2934.7368      13412.615      65044.01       87120        
    420600   420600         4198.6455      293.90053      10484.852      2940.939       13425.791      65036.042      87120        
    420700   420700         4199.6435      299.32916      10534.647      2995.2609      13529.908      65197.757      87120        
    420800   420800         4200.6418      299.84661      10536.57       3000.4389      13537.009      65242.891      87120        
    420900   420900         4201.6403      297.97114      10530.154      2981.6719      13511.826      65224.839      87120        
    421000   421000         4202.6196      296.92762      10491.275      2971.2297      13462.505      65107.977      87120        
    421100   421100         4203.6133      295.26144      10526.325      2954.557       13480.882      65232.275      87120        
    421200   421200         4204.5993      305.25571      10564.082      3054.5654      13618.647      65420.774      87120        
    421300   421300         4205.5872      302.80296      10534.685      3030.0218      13564.707      65188.617      87120        
    421400   421400         4206.5595      298.42955      10507.756      2986.259       13494.015      65142.363      87120        
    421500   421500         4207.5537      296.11629      10512.485      2963.1111      13475.596      65174.853      87120        
    421600   421600         4208.546       297.9209       10515.676      2981.1692      13496.845      65123.115      87120        
    421700   421700         4209.5386      309.25869      10496.722      3094.6216      13591.343      65183.867      87120        
    421800   421800         4210.5492      307.03101      10493.394      3072.3302      13565.724      65096.968      87120        
    421900   421900         4211.5238      296.7785       10499.1        2969.7376      13468.838      65084.573      87120        
    422000   422000         4212.5102      296.09077      10502.507      2962.8557      13465.363      65076.973      87120        
    422100   422100         4213.4821      294.10743      10546.989      2943.0094      13489.998      65225.073      87120        
    422200   422200         4214.4471      302.26775      10565.742      3024.6662      13590.408      65270.237      87120        
    422300   422300         4215.4266      305.26426      10510.959      3054.6511      13565.61       65136.326      87120        
    422400   422400         4216.3927      296.43486      10552.979      2966.2989      13519.278      65237.086      87120        
    422500   422500         4217.3849      295.7986       10583.85       2959.9321      13543.782      65393.685      87120        
    422600   422600         4218.3775      304.96137      10558.654      3051.6202      13610.274      65377.605      87120        
    422700   422700         4219.3583      310.1638       10604.907      3103.6787      13708.586      65479.984      87120        
    422800   422800         4220.3527      303.80697      10593.103      3040.0686      13633.172      65502.312      87120        
    422900   422900         4221.3393      296.63193      10552.904      2968.271       13521.175      65260.36       87120        
    423000   423000         4222.3073      295.28605      10542.308      2954.8033      13497.111      65134.208      87120        
    423100   423100         4223.281       304.46671      10516.491      3046.6703      13563.161      65133.645      87120        
    423200   423200         4224.2425      306.0214       10516.368      3062.2274      13578.596      65178.032      87120        
    423300   423300         4225.2218      299.04964      10484.029      2992.4639      13476.493      65038.652      87120        
    423400   423400         4226.203       295.9285       10499.059      2961.232       13460.291      65096.11       87120        
    423500   423500         4227.1949      304.03956      10477.853      3042.396       13520.249      65125.573      87120        
    423600   423600         4228.1922      304.66054      10530.427      3048.6099      13579.037      65285.754      87120        
    423700   423700         4229.173       304.42038      10527.926      3046.2067      13574.132      65286.864      87120        
    423800   423800         4230.1681      290.97662      10557.862      2911.6807      13469.543      65278.614      87120        
    423900   423900         4231.1449      296.76131      10487.76       2969.5656      13457.326      65085.52       87120        
    424000   424000         4232.1429      302.44672      10508.731      3026.4571      13535.188      65168.44       87120        
    424100   424100         4233.1192      306.50617      10497.052      3067.0783      13564.13       65174.572      87120        
    424200   424200         4234.1046      298.87371      10547.092      2990.7035      13537.796      65332.853      87120        
    424300   424300         4235.0934      297.64785      10554.906      2978.4369      13533.343      65337.972      87120        
    424400   424400         4236.0995      302.73992      10518.106      3029.391       13547.497      65165.597      87120        
    424500   424500         4237.0933      298.91202      10549.599      2991.0868      13540.685      65298.395      87120        
    424600   424600         4238.0908      301.12815      10528.294      3013.2627      13541.557      65249.55       87120        
    424700   424700         4239.1118      293.70425      10604.642      2938.9749      13543.617      65482.616      87120        
    424800   424800         4240.1247      299.0141       10576.313      2992.1084      13568.422      65381.187      87120        
    424900   424900         4241.1472      298.78229      10586.826      2989.7887      13576.615      65405.147      87120        
    425000   425000         4242.1459      300.56083      10587.42       3007.5858      13595.006      65413.212      87120        
    425100   425100         4243.1395      305.52537      10581.548      3057.2639      13638.812      65479.962      87120        
    425200   425200         4244.1234      299.54464      10543.094      2997.4172      13540.511      65249.887      87120        
    425300   425300         4245.1287      291.90274      10539.16       2920.9479      13460.108      65206.688      87120        
    425400   425400         4246.1321      291.94623      10590.954      2921.3831      13512.338      65388.998      87120        
    425500   425500         4247.1071      298.82813      10564.675      2990.2474      13554.923      65283.525      87120        
    425600   425600         4248.1164      299.41653      10539.227      2996.1353      13535.363      65139.708      87120        
    425700   425700         4249.0922      302.52316      10470.052      3027.222       13497.274      64992.802      87120        
    425800   425800         4250.0832      294.99884      10486.668      2951.9293      13438.597      64978.858      87120        
    425900   425900         4251.0529      288.0543       10516.707      2882.4382      13399.146      65065.112      87120        
    426000   426000         4252.0414      301.94371      10467.946      3021.4237      13489.37       64925.214      87120        
    426100   426100         4253.0118      305.5116       10482.814      3057.126       13539.94       64979.926      87120        
    426200   426200         4253.9996      301.03337      10488.271      3012.3143      13500.585      65050.132      87120        
    426300   426300         4254.9713      300.48131      10467.654      3006.7901      13474.444      65001.361      87120        
    426400   426400         4255.9675      302.67478      10482.192      3028.7392      13510.931      64995.872      87120        
    426500   426500         4256.9589      301.88882      10503.691      3020.8745      13524.565      65112.315      87120        
    426600   426600         4257.9622      300.92042      10558.55       3011.1841      13569.734      65330.622      87120        
    426700   426700         4258.9572      298.44628      10581.169      2986.4264      13567.595      65394.648      87120        
    426800   426800         4259.9402      298.02523      10510.528      2982.2131      13492.741      65196.183      87120        
    426900   426900         4260.9459      301.72153      10531.073      3019.2004      13550.274      65347.658      87120        
    427000   427000         4261.9366      300.57697      10628.936      3007.7473      13636.683      65669.408      87120        
    427100   427100         4262.9293      303.5024       10643.276      3037.0208      13680.297      65775.134      87120        
    427200   427200         4263.9235      301.2646       10645.992      3014.6281      13660.62       65772.784      87120        
    427300   427300         4264.924       292.57347      10597.994      2927.6596      13525.654      65486.254      87120        
    427400   427400         4265.9273      295.3999       10542.065      2955.9426      13498.008      65376.386      87120        
    427500   427500         4266.9168      298.62209      10582.012      2988.1857      13570.198      65479.071      87120        
    427600   427600         4267.9165      297.19254      10614.555      2973.8807      13588.436      65511.269      87120        
    427700   427700         4268.9173      300.70552      10580.244      3009.0337      13589.278      65491.002      87120        
    427800   427800         4269.9198      303.73149      10555.176      3039.3132      13594.489      65331.311      87120        
    427900   427900         4270.9025      302.52193      10554.431      3027.2097      13581.64       65298.032      87120        
    428000   428000         4271.8892      301.63135      10502.685      3018.298       13520.983      65122.094      87120        
    428100   428100         4272.8609      300.8111       10466.347      3010.0902      13476.437      64919.426      87120        
    428200   428200         4273.8224      297.14601      10466.763      2973.4151      13440.178      64873.158      87120        
    428300   428300         4274.7956      298.10806      10463.599      2983.0419      13446.641      64902.416      87120        
    428400   428400         4275.748       303.4579       10453.717      3036.5756      13490.292      64780.381      87120        
    428500   428500         4276.7021      302.77607      10436.01       3029.7528      13465.763      64681.792      87120        
    428600   428600         4277.6791      294.75014      10422.416      2949.4407      13371.857      64747.074      87120        
    428700   428700         4278.6517      298.16489      10391.688      2983.6106      13375.299      64596.797      87120        
    428800   428800         4279.6263      305.04362      10368.104      3052.4432      13420.547      64583.264      87120        
    428900   428900         4280.6044      300.24545      10450.872      3004.4299      13455.302      64913.816      87120        
    429000   429000         4281.5836      297.49666      10524.761      2976.9239      13501.685      65064.659      87120        
    429100   429100         4282.5592      304.70311      10532.126      3049.0359      13581.162      65136.003      87120        
    429200   429200         4283.5356      303.37317      10565.57       3035.7277      13601.297      65280.417      87120        
    429300   429300         4284.4947      293.78313      10566.243      2939.7642      13506.007      65310.971      87120        
    429400   429400         4285.4697      299.58498      10512.818      2997.8208      13510.638      65143.254      87120        
    429500   429500         4286.4436      304.01697      10517.298      3042.17        13559.468      65139.832      87120        
    429600   429600         4287.4564      306.94619      10494.604      3071.4814      13566.086      65131.826      87120        
    429700   429700         4288.4398      295.02025      10548.114      2952.1435      13500.258      65306.092      87120        
    429800   429800         4289.4384      294.02959      10603.615      2942.2305      13545.846      65509.575      87120        
    429900   429900         4290.4246      300.6649       10567.082      3008.6272      13575.709      65337.225      87120        
    430000   430000         4291.4334      306.66961      10537.349      3068.7138      13606.063      65315.241      87120        
    430100   430100         4292.4241      297.65091      10559.757      2978.4674      13538.224      65325.469      87120        
    430200   430200         4293.42        297.59842      10520.225      2977.9422      13498.167      65205.978      87120        
    430300   430300         4294.4015      304.53424      10558.099      3047.3461      13605.445      65338.336      87120        
    430400   430400         4295.4042      304.87308      10554.738      3050.7367      13605.474      65310.348      87120        
    430500   430500         4296.407       301.19162      10525.885      3013.8979      13539.783      65184.148      87120        
    430600   430600         4297.389       298.52738      10509.567      2987.2379      13496.805      65139.501      87120        
    430700   430700         4298.3867      299.5513       10454.598      2997.4839      13452.082      64915.586      87120        
    430800   430800         4299.3932      292.50776      10517.645      2927.0021      13444.648      65186.256      87120        
    430900   430900         4300.4066      306.84346      10492.697      3070.4534      13563.15       65078.327      87120        
    431000   431000         4301.4132      301.84903      10516.817      3020.4763      13537.293      65081.756      87120        
    431100   431100         4302.411       301.10833      10453.889      3013.0644      13466.954      64894.536      87120        
    431200   431200         4303.4118      296.69981      10478.066      2968.9502      13447.016      65000.795      87120        
    431300   431300         4304.4132      298.62738      10473.076      2988.2386      13461.315      64980.655      87120        
    431400   431400         4305.4076      298.3558       10561.954      2985.521       13547.475      65337.186      87120        
    431500   431500         4306.4072      306.18274      10551.677      3063.8419      13615.519      65321.492      87120        
    431600   431600         4307.3953      300.68173      10545.951      3008.7955      13554.747      65224.512      87120        
    431700   431700         4308.3899      299.14799      10506.676      2993.4481      13500.125      65174.138      87120        
    431800   431800         4309.3905      301.35823      10473.098      3015.565       13488.663      65035.214      87120        
    431900   431900         4310.3978      295.21134      10575.035      2954.0557      13529.091      65342.987      87120        
    432000   432000         4311.4102      303.36079      10568.611      3035.6038      13604.214      65479.251      87120        
    432100   432100         4312.4151      302.49016      10639.553      3026.8918      13666.445      65668.974      87120        
    432200   432200         4313.4181      309.71401      10616.539      3099.1778      13715.717      65612.052      87120        
    432300   432300         4314.4105      303.41693      10570.524      3036.1656      13606.69       65490.082      87120        
    432400   432400         4315.4182      299.18481      10523.463      2993.8166      13517.279      65251.443      87120        
    432500   432500         4316.418       292.1848       10566.791      2923.7704      13490.561      65323.223      87120        
    432600   432600         4317.4278      297.42284      10599.217      2976.1852      13575.403      65497.153      87120        
    432700   432700         4318.4394      306.14358      10560.279      3063.45        13623.729      65387.591      87120        
    432800   432800         4319.4269      298.8097       10570.26       2990.063       13560.323      65336.192      87120        
    432900   432900         4320.4228      297.38051      10527.382      2975.7616      13503.143      65177.2        87120        
    433000   433000         4321.4199      297.90805      10491.874      2981.0406      13472.914      65019.919      87120        
    433100   433100         4322.3936      301.78694      10473.808      3019.855       13493.663      65001.586      87120        
    433200   433200         4323.3722      301.97161      10508.801      3021.7029      13530.504      65093.427      87120        
    433300   433300         4324.3532      307.93349      10515.512      3081.3609      13596.872      65161.987      87120        
    433400   433400         4325.3539      306.93794      10491.114      3071.3989      13562.513      64940.546      87120        
    433500   433500         4326.3527      296.66536      10509.534      2968.6055      13478.139      65107.844      87120        
    433600   433600         4327.3303      300.74944      10513.786      3009.4731      13523.259      65144.566      87120        
    433700   433700         4328.3118      301.86969      10501.136      3020.683       13521.819      64979.365      87120        
    433800   433800         4329.3133      301.63217      10480.559      3018.3062      13498.865      64997.599      87120        
    433900   433900         4330.3009      293.63652      10506.457      2938.2971      13444.754      65100.55       87120        
    434000   434000         4331.2885      297.66792      10433.726      2978.6376      13412.364      64840.202      87120        
    434100   434100         4332.2676      300.45271      10493.834      3006.5039      13500.338      65056.227      87120        
    434200   434200         4333.2427      306.48354      10526.57       3066.8518      13593.422      65216.788      87120        
    434300   434300         4334.2352      301.79086      10556.453      3019.8941      13576.348      65310.473      87120        
    434400   434400         4335.2357      300.94889      10548.099      3011.469       13559.568      65290.303      87120        
    434500   434500         4336.2314      304.66514      10546.177      3048.6559      13594.833      65330.529      87120        
    434600   434600         4337.2247      303.27914      10597.886      3034.7868      13632.673      65458.315      87120        
    434700   434700         4338.222       305.83845      10609.214      3060.3967      13669.61       65534.625      87120        
    434800   434800         4339.2089      302.0152       10627.066      3022.139       13649.205      65624.935      87120        
    434900   434900         4340.2056      295.75773      10585.481      2959.5232      13545.004      65379.216      87120        
    435000   435000         4341.2018      298.96611      10540.716      2991.6281      13532.344      65285.391      87120        
    435100   435100         4342.1897      301.94761      10573.658      3021.4628      13595.121      65368.199      87120        
    435200   435200         4343.1814      305.79152      10522.941      3059.9271      13582.868      65126.567      87120        
    435300   435300         4344.1723      300.09561      10515.93       3002.9305      13518.861      65198.69       87120        
    435400   435400         4345.1641      301.77862      10461.283      3019.7717      13481.055      64940.472      87120        
    435500   435500         4346.1307      302.13282      10452.565      3023.316       13475.881      64860.598      87120        
    435600   435600         4347.1137      303.86259      10451.086      3040.6251      13491.711      64869.016      87120        
    435700   435700         4348.0952      306.87527      10507.278      3070.7717      13578.05       65047.234      87120        
    435800   435800         4349.0829      299.65839      10538.024      2998.5555      13536.579      65093.696      87120        
    435900   435900         4350.0729      298.75746      10517.121      2989.5403      13506.661      65090.865      87120        
    436000   436000         4351.0776      303.52438      10486.811      3037.2408      13524.052      65013.954      87120        
    436100   436100         4352.088       298.77043      10580.433      2989.67        13570.103      65336.648      87120        
    436200   436200         4353.0851      305.12847      10546.946      3053.2922      13600.238      65285.469      87120        
    436300   436300         4354.0717      295.88248      10552.609      2960.7715      13513.381      65250.618      87120        
    436400   436400         4355.0433      296.63739      10489.584      2968.3256      13457.91       65018.599      87120        
    436500   436500         4356.0101      296.165        10549.924      2963.5986      13513.523      65255.613      87120        
    436600   436600         4356.9936      305.24136      10571.498      3054.4219      13625.92       65319.662      87120        
    436700   436700         4357.9919      304.63557      10564.773      3048.36        13613.133      65358.675      87120        
    436800   436800         4359.0014      296.28557      10586.792      2964.8051      13551.597      65429.307      87120        
    436900   436900         4359.9988      299.53073      10559.026      2997.278       13556.304      65291.078      87120        
    437000   437000         4360.9977      306.76081      10500.722      3069.6264      13570.348      65121.731      87120        
    437100   437100         4361.9778      305.85128      10494.09       3060.5251      13554.615      65039.805      87120        
    437200   437200         4362.9636      291.07361      10519.892      2912.6512      13432.543      65112.4        87120        
    437300   437300         4363.9519      296.99445      10483.703      2971.8985      13455.601      65010.464      87120        
    437400   437400         4364.9451      302.96501      10499.177      3031.6434      13530.82       65083.318      87120        
    437500   437500         4365.9426      306.87884      10480.235      3070.8074      13551.042      64997.549      87120        
    437600   437600         4366.9657      296.11872      10533.168      2963.1354      13496.304      65158.102      87120        
    437700   437700         4367.9857      297.00176      10508.488      2971.9717      13480.46       65186.337      87120        
    437800   437800         4368.9866      294.20903      10581.772      2944.026       13525.798      65368.433      87120        
    437900   437900         4370.0177      305.31142      10554.492      3055.123       13609.615      65249.465      87120        
    438000   438000         4371.0159      302.74558      10580.934      3029.4477      13610.382      65401.004      87120        
    438100   438100         4372.0124      300.91113      10538.697      3011.0911      13549.788      65212.991      87120        
    438200   438200         4373.0042      299.78219      10490.509      2999.7943      13490.304      65035.102      87120        
    438300   438300         4373.9722      293.24835      10507.926      2934.4129      13442.339      65083.418      87120        
    438400   438400         4374.9682      295.76081      10523.821      2959.554       13483.375      65155.347      87120        
    438500   438500         4375.9625      306.10751      10518.048      3063.0891      13581.137      65126.352      87120        
    438600   438600         4376.9615      306.5342       10503.641      3067.3588      13571          65116.1        87120        
    438700   438700         4377.9561      302.41192      10502.881      3026.1089      13528.99       65106.267      87120        
    438800   438800         4378.9487      299.70539      10492.168      2999.0258      13491.193      65095.855      87120        
    438900   438900         4379.9561      300.29919      10452.485      3004.9677      13457.453      64989.402      87120        
    439000   439000         4380.9587      292.15733      10502.555      2923.4955      13426.05       65102.127      87120        
    439100   439100         4381.954       303.64459      10474.556      3038.4436      13512.999      65052.851      87120        
    439200   439200         4382.9685      307.09066      10520.054      3072.9271      13592.982      65170.985      87120        
    439300   439300         4383.9794      300.39414      10559.047      3005.9178      13564.965      65384.252      87120        
    439400   439400         4384.9718      296.55324      10581.617      2967.4835      13549.1        65470.468      87120        
    439500   439500         4385.9903      294.82718      10625.029      2950.2116      13575.241      65618.85       87120        
    439600   439600         4387.0105      307.14016      10581.731      3073.4224      13655.154      65532.716      87120        
    439700   439700         4388.0293      302.30212      10655.635      3025.0101      13680.646      65789.168      87120        
    439800   439800         4389.028       299.366        10587.069      2995.6296      13582.699      65447.065      87120        
    439900   439900         4390.0626      288.40058      10614.47       2885.9032      13500.373      65547.729      87120        
    440000   440000         4391.0804      297.49595      10571.573      2976.9168      13548.49       65383.625      87120        
    440100   440100         4392.0804      302.11979      10600.555      3023.1856      13623.741      65506.448      87120        
    440200   440200         4393.062       296.98464      10627.489      2971.8003      13599.289      65633.582      87120        
    440300   440300         4394.0589      299.25917      10558.558      2994.5606      13553.119      65304.814      87120        
    440400   440400         4395.0699      298.86464      10538.868      2990.6128      13529.481      65283.951      87120        
    440500   440500         4396.0586      304.17965      10537.725      3043.7978      13581.523      65240.8        87120        
    440600   440600         4397.0686      304.66628      10603.631      3048.6673      13652.299      65441.091      87120        
    440700   440700         4398.072       316.38931      10551.933      3165.9748      13717.908      65311.036      87120        
    440800   440800         4399.0736      303.49623      10544.405      3036.9591      13581.364      65223.25       87120        
    440900   440900         4400.0671      299.3371       10513.138      2995.3404      13508.479      65064.382      87120        
    441000   441000         4401.0428      300.24575      10465.25       3004.4329      13469.683      64939.272      87120        
    441100   441100         4402.0255      299.21976      10482.598      2994.1662      13476.765      64929.485      87120        
    441200   441200         4403.0153      304.73929      10494.228      3049.3979      13543.626      64997.31       87120        
    441300   441300         4404.0025      304.04118      10497.729      3042.4122      13540.141      65041.578      87120        
    441400   441400         4404.9663      299.02935      10442.386      2992.2609      13434.647      64805.989      87120        
    441500   441500         4405.9507      297.47311      10451.722      2976.6883      13428.41       64818.341      87120        
    441600   441600         4406.9457      299.3032       10499.365      2995.0012      13494.366      65029.784      87120        
    441700   441700         4407.9298      306.78621      10448.142      3069.8805      13518.022      64919.151      87120        
    441800   441800         4408.9069      291.08273      10496.721      2912.7424      13409.463      65025.949      87120        
    441900   441900         4409.906       290.70942      10549.79       2909.0069      13458.797      65255.02       87120        
    442000   442000         4410.9016      299.18217      10581.927      2993.7902      13575.717      65451.27       87120        
    442100   442100         4411.8889      305.7826       10599.705      3059.8379      13659.542      65569.887      87120        
    442200   442200         4412.8893      302.26914      10611.177      3024.6802      13635.857      65668.285      87120        
    442300   442300         4413.8808      294.96008      10615.441      2951.5414      13566.983      65601.193      87120        
    442400   442400         4414.8867      294.79882      10653.52       2949.9278      13603.447      65718.343      87120        
    442500   442500         4415.8768      303.31518      10615.14       3035.1474      13650.287      65675.081      87120        
    442600   442600         4416.8671      304.53148      10570.525      3047.3184      13617.843      65413.584      87120        
    442700   442700         4417.8641      300.65707      10528.899      3008.5488      13537.448      65356.654      87120        
    442800   442800         4418.8787      289.08518      10588.03       2892.7537      13480.784      65483.739      87120        
    442900   442900         4419.8857      303.60201      10545.591      3038.0176      13583.609      65353.933      87120        
    443000   443000         4420.918       306.04927      10562.379      3062.5063      13624.885      65472.058      87120        
    443100   443100         4421.9159      301.944        10544.434      3021.4266      13565.86       65378.44       87120        
    443200   443200         4422.9134      298.90358      10520.631      2991.0024      13511.633      65233.044      87120        
    443300   443300         4423.9333      294.29026      10525.335      2944.8388      13470.174      65242.111      87120        
    443400   443400         4424.9396      298.97352      10499.626      2991.7022      13491.329      65041.137      87120        
    443500   443500         4425.9382      297.6259       10506.813      2978.2172      13485.03       65146.038      87120        
    443600   443600         4426.931       295.41528      10523.556      2956.0964      13479.652      65156.71       87120        
    443700   443700         4427.9269      302.31814      10495.971      3025.1705      13521.141      65090.36       87120        
    443800   443800         4428.9456      304.62471      10511.863      3048.2514      13560.115      65157.488      87120        
    443900   443900         4429.9506      303.44883      10527.297      3036.4848      13563.782      65185.887      87120        
    444000   444000         4430.9521      297.59412      10519.303      2977.8992      13497.202      65100.89       87120        
    444100   444100         4431.9091      293.04976      10480.305      2932.4256      13412.731      64954.099      87120        
    444200   444200         4432.8848      297.05311      10477.784      2972.4855      13450.269      64972.097      87120        
    444300   444300         4433.8745      307.33316      10446.09       3075.3537      13521.444      64885.562      87120        
    444400   444400         4434.8505      304.77179      10463.663      3049.7231      13513.386      64962.162      87120        
    444500   444500         4435.8361      298.62308      10506.711      2988.1955      13494.907      65168.604      87120        
    444600   444600         4436.8341      298.05401      10540.237      2982.5011      13522.738      65242.544      87120        
    444700   444700         4437.84        300.15914      10523.073      3003.5663      13526.639      65196.412      87120        
    444800   444800         4438.8389      290.02359      10550.063      2902.144       13452.207      65270.763      87120        
    444900   444900         4439.8398      297.51868      10532.446      2977.1443      13509.59       65254.41       87120        
    445000   445000         4440.8508      301.28733      10582.462      3014.8556      13597.318      65469.302      87120        
    445100   445100         4441.8364      305.62156      10567.341      3058.2264      13625.567      65440.276      87120        
    445200   445200         4442.8565      292.64843      10655.874      2928.4098      13584.284      65665.2        87120        
    445300   445300         4443.8781      292.75098      10634.667      2929.4359      13564.103      65737.086      87120        
    445400   445400         4444.9131      298.06941      10613.599      2982.6552      13596.254      65636.468      87120        
    445500   445500         4445.9369      302.87892      10555.736      3030.782       13586.518      65415.535      87120        
    445600   445600         4446.9591      296.2463       10594.735      2964.4121      13559.147      65567.481      87120        
    445700   445700         4447.9898      301.44721      10604.051      3016.4554      13620.506      65593.122      87120        
    445800   445800         4449.0068      308.02308      10562.648      3082.2574      13644.905      65398.322      87120        
    445900   445900         4450.019       294.16645      10591.163      2943.5999      13534.763      65534.202      87120        
    446000   446000         4451.016       295.92805      10550.709      2961.2275      13511.937      65321.081      87120        
    446100   446100         4452.019       297.14253      10570.384      2973.3803      13543.764      65350.227      87120        
    446200   446200         4453.0297      301.57245      10538.641      3017.7086      13556.349      65375.408      87120        
    446300   446300         4454.0298      301.49242      10530.94       3016.9078      13547.848      65165.667      87120        
    446400   446400         4455.0376      296.89595      10517.515      2970.9129      13488.428      65172.841      87120        
    446500   446500         4456.0202      294.04895      10417.471      2942.4241      13359.896      64867.373      87120        
    446600   446600         4457.0112      291.79318      10475.003      2919.8516      13394.854      64992.218      87120        
    446700   446700         4458.0099      299.1966       10476.715      2993.9345      13470.649      64951.369      87120        
    446800   446800         4458.9912      301.77434      10498.265      3019.7289      13517.994      65145.337      87120        
    446900   446900         4459.9937      302.67821      10536.783      3028.7735      13565.557      65201.041      87120        
    447000   447000         4461.0006      300.67967      10548.481      3008.775       13557.256      65193.315      87120        
    447100   447100         4461.9997      296.09107      10481.578      2962.8588      13444.437      65042.823      87120        
    447200   447200         4463.0032      295.70316      10476.134      2958.9772      13435.112      64964.565      87120        
    447300   447300         4463.9882      296.69596      10554.176      2968.9117      13523.087      65300.112      87120        
    447400   447400         4464.9925      307.36505      10494.371      3075.6727      13570.044      65165.284      87120        
    447500   447500         4466.0001      297.00705      10533.05       2972.0246      13505.075      65205.901      87120        
    447600   447600         4467.0047      300.96956      10472.853      3011.6758      13484.529      64993.207      87120        
    447700   447700         4467.9904      297.15667      10529.396      2973.5218      13502.918      65199.986      87120        
    447800   447800         4468.993       305.3884       10554.993      3055.8933      13610.886      65370.346      87120        
    447900   447900         4470.0049      310.82505      10550.573      3110.2955      13660.868      65352.478      87120        
    448000   448000         4471.0253      304.82364      10506.14       3050.242       13556.382      65158.449      87120        
    448100   448100         4472.0356      301.43512      10465.531      3016.3344      13481.866      64958.539      87120        
    448200   448200         4473.083       294.80641      10523.499      2950.0037      13473.503      65271.422      87120        
    448300   448300         4474.1075      300.20003      10563.998      3003.9754      13567.974      65403.526      87120        
    448400   448400         4475.1487      305.23859      10567.1        3054.3942      13621.494      65367.702      87120        
    448500   448500         4476.1963      299.49516      10566.195      2996.922       13563.117      65415.765      87120        
    448600   448600         4477.2179      292.64155      10593.924      2928.3409      13522.265      65391.343      87120        
    448700   448700         4478.2462      298.08343      10550.492      2982.7955      13533.288      65319.938      87120        
    448800   448800         4479.2715      305.49073      10486.199      3056.9172      13543.116      65191.873      87120        
    448900   448900         4480.2939      300.15103      10483.931      3003.4851      13487.416      65099.335      87120        
    449000   449000         4481.3177      299.88717      10488.754      3000.8447      13489.599      65067.793      87120        
    449100   449100         4482.3141      302.26427      10492.01       3024.6314      13516.641      65125.045      87120        
    449200   449200         4483.319       299.44663      10508.303      2996.4365      13504.74       65165.183      87120        
    449300   449300         4484.3254      293.259        10539.725      2934.5195      13474.244      65272.102      87120        
    449400   449400         4485.3484      301.08115      10531.385      3012.7924      13544.178      65311.044      87120        
    449500   449500         4486.3571      301.65278      10573.929      3018.5125      13592.441      65402.966      87120        
    449600   449600         4487.3704      300.87653      10567.583      3010.7449      13578.328      65399.552      87120        
    449700   449700         4488.3814      303.03259      10524.28       3032.3197      13556.6        65261.57       87120        
    449800   449800         4489.3887      299.3735       10532.391      2995.7047      13528.095      65230.911      87120        
    449900   449900         4490.4019      297.05792      10566.973      2972.5336      13539.506      65354.537      87120        
    450000   450000         4491.4116      303.54309      10499.634      3037.428       13537.062      65123.66       87120        
    450100   450100         4492.4053      300.86882      10530.888      3010.6677      13541.555      65188.865      87120        
    450200   450200         4493.4059      311.48129      10487.359      3116.8622      13604.221      65108.702      87120        
    450300   450300         4494.3994      302.25449      10510.903      3024.5335      13535.437      65150.579      87120        
    450400   450400         4495.3984      303.03933      10430.229      3032.3871      13462.617      64870.939      87120        
    450500   450500         4496.3739      296.36733      10473.074      2965.6232      13438.697      64993.04       87120        
    450600   450600         4497.367       300.18184      10467.94       3003.7934      13471.733      64957.563      87120        
    450700   450700         4498.3598      300.64679      10503.918      3008.446       13512.364      65062.581      87120        
    450800   450800         4499.3369      299.36501      10486.365      2995.6197      13481.985      64981.424      87120        
    450900   450900         4500.3318      297.26969      10482.807      2974.6528      13457.459      64973.726      87120        
    451000   451000         4501.3265      297.52045      10472.907      2977.162       13450.069      64992.672      87120        
    451100   451100         4502.2925      302.57419      10407.309      3027.7326      13435.042      64779.242      87120        
    451200   451200         4503.2764      298.97209      10461.265      2991.688       13452.953      64934.971      87120        
    451300   451300         4504.266       308.92809      10480.19       3091.3134      13571.503      65055.306      87120        
    451400   451400         4505.2452      304.50168      10523.287      3047.0202      13570.307      65149.77       87120        
    451500   451500         4506.2368      302.0624       10462.608      3022.6113      13485.219      64970.436      87120        
    451600   451600         4507.2456      295.73769      10504.589      2959.3226      13463.911      65057.72       87120        
    451700   451700         4508.2551      297.29669      10543.852      2974.923       13518.775      65218.82       87120        
    451800   451800         4509.2535      303.51581      10545.126      3037.155       13582.281      65269.631      87120        
    451900   451900         4510.2635      301.92835      10548.461      3021.27        13569.731      65273.763      87120        
    452000   452000         4511.2704      298.73111      10560.546      2989.2766      13549.823      65338.652      87120        
    452100   452100         4512.2688      297.77791      10552.257      2979.7383      13531.995      65316.468      87120        
    452200   452200         4513.2794      302.10659      10536.844      3023.0535      13559.898      65240.656      87120        
    452300   452300         4514.2845      302.00363      10606.258      3022.0232      13628.281      65538.109      87120        
    452400   452400         4515.2869      305.67988      10608.312      3058.81        13667.122      65582.904      87120        
    452500   452500         4516.286       302.29388      10581.647      3024.9277      13606.575      65418.028      87120        
    452600   452600         4517.2881      300.13565      10534.145      3003.3312      13537.476      65306.34       87120        
    452700   452700         4518.3171      296.25988      10566.405      2964.548       13530.953      65406.079      87120        
    452800   452800         4519.3301      299.84466      10576.044      3000.4194      13576.463      65450.012      87120        
    452900   452900         4520.3461      310.93295      10529.917      3111.3752      13641.292      65313.959      87120        
    453000   453000         4521.3627      298.96011      10581.696      2991.5681      13573.264      65458.714      87120        
    453100   453100         4522.3525      293.16504      10614          2933.5793      13547.579      65547.173      87120        
    453200   453200         4523.3438      303.56106      10519.42       3037.6079      13557.027      65232.887      87120        
    453300   453300         4524.334       307.69514      10446.044      3078.9758      13525.02       64948.939      87120        
    453400   453400         4525.3217      294.20329      10500.289      2943.9686      13444.258      65064.066      87120        
    453500   453500         4526.3157      297.80902      10512.066      2980.0496      13492.116      65140.704      87120        
    453600   453600         4527.306       301.51646      10562.183      3017.1483      13579.331      65355.039      87120        
    453700   453700         4528.2934      303.2748       10527.897      3034.7434      13562.64       65271.938      87120        
    453800   453800         4529.2676      298.03167      10531.358      2982.2776      13513.635      65232.781      87120        
    453900   453900         4530.2545      297.33104      10498.928      2975.2666      13474.195      65104.837      87120        
    454000   454000         4531.25        301.62019      10490.935      3018.1864      13509.121      65042.109      87120        
    454100   454100         4532.2324      305.4512       10502.109      3056.5216      13558.631      65098.943      87120        
    454200   454200         4533.2091      305.21775      10489.604      3054.1856      13543.79       65084.898      87120        
    454300   454300         4534.2018      300.00065      10432.863      3001.9803      13434.844      64823.275      87120        
    454400   454400         4535.1841      293.63252      10460.417      2938.2571      13398.674      64915.271      87120        
    454500   454500         4536.1858      294.18591      10530.298      2943.7947      13474.093      65181.048      87120        
    454600   454600         4537.1716      304.53023      10475.914      3047.3059      13523.22       64998.338      87120        
    454700   454700         4538.1614      304.42359      10485.649      3046.2388      13531.887      65041.63       87120        
    454800   454800         4539.162       299.64668      10491.059      2998.4382      13489.497      65035.387      87120        
    454900   454900         4540.1629      291.79984      10519.226      2919.9182      13439.144      65169.038      87120        
    455000   455000         4541.1516      303.93972      10518.265      3041.397       13559.662      65168.635      87120        
    455100   455100         4542.1221      303.8313       10522.62       3040.312       13562.932      65175.909      87120        
    455200   455200         4543.127       300.70417      10504.181      3009.0201      13513.201      65107.042      87120        
    455300   455300         4544.1196      294.27544      10530.529      2944.6905      13475.22       65183.442      87120        
    455400   455400         4545.119       295.31577      10552.291      2955.1007      13507.391      65271.414      87120        
    455500   455500         4546.1181      304.69103      10540.629      3048.915       13589.544      65281.315      87120        
    455600   455600         4547.1152      299.10396      10568.043      2993.0075      13561.05       65313.469      87120        
    455700   455700         4548.1187      300.61123      10515.656      3008.0901      13523.746      65158.145      87120        
    455800   455800         4549.1088      295.34615      10543.327      2955.4047      13498.731      65258.315      87120        
    455900   455900         4550.1006      296.15307      10536.754      2963.4792      13500.233      65173.839      87120        
    456000   456000         4551.101       298.30142      10498.132      2984.9769      13483.109      65079.417      87120        
    456100   456100         4552.0791      302.25411      10512.321      3024.5298      13536.851      65172.791      87120        
    456200   456200         4553.0845      303.16296      10571.368      3033.6242      13604.993      65292.85       87120        
    456300   456300         4554.0898      305.03298      10548.515      3052.3367      13600.851      65377.603      87120        
    456400   456400         4555.1172      294.05021      10580.538      2942.4368      13522.975      65454.279      87120        
    456500   456500         4556.1191      294.9958       10559.608      2951.8989      13511.507      65304.405      87120        
    456600   456600         4557.1302      299.99844      10557.046      3001.9582      13559.004      65312.329      87120        
    456700   456700         4558.1425      301.20557      10557.809      3014.0374      13571.846      65337.238      87120        
    456800   456800         4559.1428      297.93886      10596.525      2981.3488      13577.874      65437.587      87120        
    456900   456900         4560.1373      300.6561       10557.157      3008.5391      13565.696      65379.454      87120        
    457000   457000         4561.1336      292.98322      10579.804      2931.7598      13511.564      65390.845      87120        
    457100   457100         4562.1198      296.34999      10537.421      2965.4497      13502.871      65292.77       87120        
    457200   457200         4563.1118      300.48493      10555.778      3006.8263      13562.604      65331.89       87120        
    457300   457300         4564.1074      304.23089      10545.959      3044.3105      13590.27       65256.468      87120        
    457400   457400         4565.1176      301.09765      10548.757      3012.9575      13561.715      65253.307      87120        
    457500   457500         4566.112       300.30586      10474.314      3005.0345      13479.349      65036.787      87120        
    457600   457600         4567.0961      290.7524       10477.282      2909.437       13386.719      65007.535      87120        
    457700   457700         4568.0951      292.49774      10500.218      2926.9018      13427.12       65086.926      87120        
    457800   457800         4569.0945      297.95485      10520.205      2981.5088      13501.714      65177.191      87120        
    457900   457900         4570.0717      305.95592      10479.336      3061.5722      13540.909      65055.525      87120        
    458000   458000         4571.0649      297.19884      10534.411      2973.9438      13508.354      65225          87120        
    458100   458100         4572.0288      299.34653      10510.937      2995.4348      13506.372      65093.919      87120        
    458200   458200         4573.005       303.38564      10539.51       3035.8525      13575.363      65185.656      87120        
    458300   458300         4573.9665      303.76461      10520.623      3039.6447      13560.268      65152.851      87120        
    458400   458400         4574.9442      298.39085      10462.237      2985.8718      13448.109      64925.068      87120        
    458500   458500         4575.9187      298.99574      10454.968      2991.9246      13446.893      64848.07       87120        
    458600   458600         4576.9078      302.09624      10449.542      3022.95        13472.492      64888.301      87120        
    458700   458700         4577.9029      301.29051      10437.387      3014.8874      13452.274      64819.063      87120        
    458800   458800         4578.8799      291.0165       10432.962      2912.0797      13345.042      64795.135      87120        
    458900   458900         4579.8701      291.78755      10450.461      2919.7953      13370.256      64877.167      87120        
    459000   459000         4580.8486      295.38123      10498.516      2955.7557      13454.272      65044.87       87120        
    459100   459100         4581.8365      307.97512      10461.326      3081.7774      13543.104      64964.199      87120        
    459200   459200         4582.8305      307.54962      10493.419      3077.5196      13570.939      65139.401      87120        
    459300   459300         4583.8304      305.74583      10501.176      3059.4699      13560.646      65162.058      87120        
    459400   459400         4584.8278      294.74979      10558.26       2949.4372      13507.697      65373.141      87120        
    459500   459500         4585.8402      297.61367      10532.159      2978.0948      13510.253      65329.666      87120        
    459600   459600         4586.8314      303.60544      10598.794      3038.0519      13636.845      65529.893      87120        
    459700   459700         4587.8416      310.1194       10560.785      3103.2344      13664.019      65453.76       87120        
    459800   459800         4588.8515      298.75402      10582.799      2989.5058      13572.304      65539.579      87120        
    459900   459900         4589.8642      291.7184       10617.939      2919.1033      13537.043      65560.621      87120        
    460000   460000         4590.87        298.6918       10593.441      2988.8832      13582.324      65536.286      87120        
    460100   460100         4591.8829      304.12327      10583.083      3043.2336      13626.317      65492.489      87120        
    460200   460200         4592.8992      304.51613      10518.302      3047.1648      13565.467      65237.978      87120        
    460300   460300         4593.9096      297.87289      10523.213      2980.6887      13503.902      65253.03       87120        
    460400   460400         4594.9027      298.4917       10513.088      2986.8809      13499.969      65239.511      87120        
    460500   460500         4595.9041      302.2177       10513.445      3024.1654      13537.61       65194.106      87120        
    460600   460600         4596.904       302.30111      10502.507      3025           13527.507      65035.373      87120        
    460700   460700         4597.9057      301.44113      10481.396      3016.3945      13497.791      65034.709      87120        
    460800   460800         4598.9075      294.99138      10510.495      2951.8546      13462.349      65029.401      87120        
    460900   460900         4599.9061      299.86817      10472.554      3000.6546      13473.208      64951.516      87120        
    461000   461000         4600.9105      307.04825      10501.634      3072.5026      13574.137      65096.105      87120        
    461100   461100         4601.8992      307.6461       10494.861      3078.4851      13573.347      65093.692      87120        
    461200   461200         4602.8838      299.78062      10506.658      2999.7785      13506.437      65039.883      87120        
    461300   461300         4603.8637      296.42212      10524.1        2966.1714      13490.271      65180.953      87120        
    461400   461400         4604.8486      300.23999      10499.514      3004.3753      13503.89       65061.634      87120        
    461500   461500         4605.8411      302.8518       10468.295      3030.5106      13498.805      64963.7        87120        
    461600   461600         4606.8467      291.68655      10494.917      2918.7846      13413.701      65014.746      87120        
    461700   461700         4607.8588      295.55589      10488.946      2957.5034      13446.45       65101.291      87120        
    461800   461800         4608.875       302.25667      10506.929      3024.5554      13531.485      65240.173      87120        
    461900   461900         4609.8942      301.56185      10529.396      3017.6026      13546.999      65318.768      87120        
    462000   462000         4610.9027      296.03627      10591.391      2962.3104      13553.702      65429.018      87120        
    462100   462100         4611.8989      300.18567      10588.33       3003.8317      13592.162      65474.475      87120        
    462200   462200         4612.9025      305.45021      10530.275      3056.5118      13586.787      65291.543      87120        
    462300   462300         4613.9044      294.96142      10579.802      2951.5549      13531.357      65462.464      87120        
    462400   462400         4614.9147      297.24262      10559.45       2974.3819      13533.831      65353.249      87120        
    462500   462500         4615.9252      295.19541      10595.101      2953.8963      13548.997      65537.118      87120        
    462600   462600         4616.9391      303.21452      10564.247      3034.1402      13598.387      65460.329      87120        
    462700   462700         4617.944       301.8538       10637.322      3020.524       13657.846      65654.394      87120        
    462800   462800         4618.9465      303.59105      10627.731      3037.9079      13665.639      65651.446      87120        
    462900   462900         4619.9511      300.70027      10540.726      3008.9811      13549.707      65294.573      87120        
    463000   463000         4620.98        294.13808      10504.826      2943.316       13448.142      65110.337      87120        
    463100   463100         4621.975       298.76176      10483.248      2989.5833      13472.832      65045.417      87120        
    463200   463200         4622.9623      301.21567      10527.533      3014.1385      13541.672      65208.698      87120        
    463300   463300         4623.9445      305.69387      10498.44       3058.95        13557.39       65106.857      87120        
    463400   463400         4624.9273      297.2528       10517.377      2974.4837      13491.86       65161.63       87120        
    463500   463500         4625.9131      286.26917      10516.137      2864.5752      13380.712      65061.487      87120        
    463600   463600         4626.8956      288.14392      10446.947      2883.335       13330.282      64839.719      87120        
    463700   463700         4627.8952      293.96546      10495.826      2941.5887      13437.415      64948.179      87120        
    463800   463800         4628.8981      301.14303      10477.626      3013.4116      13491.038      64976.037      87120        
    463900   463900         4629.8953      303.64577      10461.122      3038.4555      13499.577      64923.882      87120        
    464000   464000         4630.8719      298.05293      10494.088      2982.4903      13476.578      64977.614      87120        
    464100   464100         4631.8473      294.54363      10482.868      2947.3742      13430.243      64997.177      87120        
    464200   464200         4632.837       295.16306      10484.361      2953.5725      13437.934      65018.605      87120        
    464300   464300         4633.831       302.50272      10539.528      3027.0175      13566.546      65224.38       87120        
    464400   464400         4634.8168      304.28571      10550.305      3044.8591      13595.164      65271.485      87120        
    464500   464500         4635.795       304.51272      10516.07       3047.1307      13563.201      65178.433      87120        
    464600   464600         4636.7946      294.40908      10593.522      2946.0278      13539.549      65485.236      87120        
    464700   464700         4637.791       302.30733      10552.401      3025.0623      13577.464      65409.582      87120        
    464800   464800         4638.7868      305.90791      10494.031      3061.0917      13555.123      65128.837      87120        
    464900   464900         4639.7946      290.80705      10579.777      2909.9838      13489.761      65431.66       87120        
    465000   465000         4640.8114      293.97851      10618.298      2941.7193      13560.017      65528.52       87120        
    465100   465100         4641.8039      303.14037      10590.309      3033.3982      13623.707      65446.482      87120        
    465200   465200         4642.8042      301.51932      10569.153      3017.177       13586.33       65454.011      87120        
    465300   465300         4643.8059      300.77899      10529.979      3009.7688      13539.747      65309.653      87120        
    465400   465400         4644.8121      294.56545      10623.588      2947.5926      13571.181      65603.275      87120        
    465500   465500         4645.8165      307.67005      10586.863      3078.7248      13665.588      65527.672      87120        
    465600   465600         4646.8254      301.823        10590.17       3020.2158      13610.386      65485.443      87120        
    465700   465700         4647.8099      292.72154      10623.881      2929.1413      13553.023      65547.563      87120        
    465800   465800         4648.8086      299.74807      10569.202      2999.4528      13568.655      65329.597      87120        
    465900   465900         4649.809       300.23621      10575.706      3004.3375      13580.043      65380.83       87120        
    466000   466000         4650.8079      304.89002      10573.884      3050.9062      13624.79       65296.736      87120        
    466100   466100         4651.7994      297.50813      10596.191      2977.0387      13573.23       65405.648      87120        
    466200   466200         4652.7937      300.19362      10495.931      3003.9113      13499.843      65066.315      87120        
    466300   466300         4653.7752      294.54479      10496.057      2947.3859      13443.443      65064.157      87120        
    466400   466400         4654.77        296.51893      10513.301      2967.1402      13480.441      65073.763      87120        
    466500   466500         4655.765       308.37027      10462.663      3085.7316      13548.395      64888.857      87120        
    466600   466600         4656.7608      298.09538      10501.606      2982.9151      13484.521      64983.171      87120        
    466700   466700         4657.758       296.3231       10476.161      2965.1806      13441.342      64932.02       87120        
    466800   466800         4658.7536      297.91794      10493.924      2981.1395      13475.063      65056.507      87120        
    466900   466900         4659.7586      310.88617      10476.706      3110.9071      13587.613      64981.678      87120        
    467000   467000         4660.7565      302.66171      10530.738      3028.6084      13559.347      65197.976      87120        
    467100   467100         4661.7337      298.95644      10488.077      2991.5314      13479.608      65038.517      87120        
    467200   467200         4662.716       301.32622      10476.109      3015.2447      13491.354      64965.011      87120        
    467300   467300         4663.7001      307.37317      10432.96       3075.754       13508.714      64899.83       87120        
    467400   467400         4664.6867      301.43103      10489.831      3016.2935      13506.125      65062.097      87120        
    467500   467500         4665.685       292.27901      10548.113      2924.7131      13472.827      65241.422      87120        
    467600   467600         4666.6717      299.09194      10518.068      2992.8872      13510.956      65171.166      87120        
    467700   467700         4667.6689      307.05827      10538.989      3072.6029      13611.592      65291.792      87120        
    467800   467800         4668.6643      302.52814      10585.835      3027.2719      13613.107      65434.061      87120        
    467900   467900         4669.6473      301.42134      10563.136      3016.1965      13579.332      65374.751      87120        
    468000   468000         4670.657       299.52133      10551.492      2997.1839      13548.676      65322.548      87120        
    468100   468100         4671.6329      301.97053      10496.966      3021.692       13518.658      65088.435      87120        
    468200   468200         4672.6357      294.98371      10575.975      2951.7779      13527.753      65418.666      87120        
    468300   468300         4673.6452      302.98521      10559.743      3031.8455      13591.589      65392.35       87120        
    468400   468400         4674.6581      310.1526       10568.861      3103.5666      13672.427      65455.178      87120        
    468500   468500         4675.665       308.06847      10574.564      3082.7115      13657.276      65424.47       87120        
    468600   468600         4676.6708      293.97705      10570.539      2941.7047      13512.243      65347.444      87120        
    468700   468700         4677.6541      296.09694      10550.508      2962.9175      13513.426      65352.563      87120        
    468800   468800         4678.6372      303.19261      10533.848      3033.9209      13567.769      65241.499      87120        
    468900   468900         4679.6415      300.76407      10557.636      3009.6195      13567.255      65348.623      87120        
    469000   469000         4680.6454      295.29648      10572.713      2954.9076      13527.621      65390.005      87120        
    469100   469100         4681.6386      294.36818      10538.518      2945.6186      13484.137      65255.84       87120        
    469200   469200         4682.6243      295.45509      10546.792      2956.4948      13503.286      65300.058      87120        
    469300   469300         4683.6188      305.26729      10560.319      3054.6814      13615.001      65395.055      87120        
    469400   469400         4684.6127      295.57457      10654.491      2957.6904      13612.181      65581.588      87120        
    469500   469500         4685.6025      306.77974      10520.165      3069.8158      13589.981      65254.37       87120        
    469600   469600         4686.5898      297.58704      10521.218      2977.8283      13499.046      65122.672      87120        
    469700   469700         4687.5756      290.35129      10522.793      2905.4232      13428.216      65138.466      87120        
    469800   469800         4688.5818      294.9879       10527.553      2951.8198      13479.372      65182.145      87120        
    469900   469900         4689.5706      300.20735      10523.417      3004.0487      13527.466      65142.203      87120        
    470000   470000         4690.5596      302.1183       10549.624      3023.1707      13572.794      65301.27       87120        
    470100   470100         4691.5303      302.54686      10551.533      3027.4591      13578.992      65245.168      87120        
    470200   470200         4692.5062      303.40906      10468.565      3036.0868      13504.652      64917.841      87120        
    470300   470300         4693.4772      294.8304       10437.684      2950.2438      13387.928      64771.179      87120        
    470400   470400         4694.4654      298.90502      10431.838      2991.0168      13422.855      64807.391      87120        
    470500   470500         4695.445       301.67241      10450.45       3018.7089      13469.159      64834.956      87120        
    470600   470600         4696.4383      305.2104       10435.854      3054.1121      13489.966      64774.946      87120        
    470700   470700         4697.4301      300.00268      10472.526      3002.0007      13474.527      64902.417      87120        
    470800   470800         4698.4413      298.96163      10472.648      2991.5833      13464.232      64873.006      87120        
    470900   470900         4699.4358      290.01217      10460.684      2902.0298      13362.714      64809.254      87120        
    471000   471000         4700.4392      294.27829      10493.93       2944.7191      13438.649      65021.889      87120        
    471100   471100         4701.4189      296.63291      10576.593      2968.2807      13544.873      65326.066      87120        
    471200   471200         4702.4155      303.82868      10544.323      3040.2858      13584.609      65276.081      87120        
    471300   471300         4703.4137      300.64798      10565.392      3008.4579      13573.85       65323.416      87120        
    471400   471400         4704.4017      300.76569      10524.284      3009.6357      13533.92       65184.655      87120        
    471500   471500         4705.3897      290.74539      10561.212      2909.3668      13470.579      65349.358      87120        
    471600   471600         4706.3868      294.55834      10586.857      2947.5214      13534.378      65424.465      87120        
    471700   471700         4707.4058      300.60767      10597.418      3008.0545      13605.473      65441.747      87120        
    471800   471800         4708.4214      307.32471      10566.288      3075.2691      13641.557      65484.574      87120        
    471900   471900         4709.4629      298.14967      10646.077      2983.4583      13629.536      65655.688      87120        
    472000   472000         4710.4791      296.84381      10621.725      2970.3911      13592.116      65617.829      87120        
    472100   472100         4711.4865      304.04306      10542.2        3042.431       13584.631      65354.717      87120        
    472200   472200         4712.4894      301.93292      10609.112      3021.3157      13630.428      65526.311      87120        
    472300   472300         4713.495       300.86534      10605.871      3010.6329      13616.504      65509.293      87120        
    472400   472400         4714.5061      300.18163      10546.757      3003.7913      13550.548      65388.372      87120        
    472500   472500         4715.5201      295.64826      10548.625      2958.4278      13507.053      65194.828      87120        
    472600   472600         4716.521       299.61245      10501.708      2998.0958      13499.804      65146.133      87120        
    472700   472700         4717.5222      306.94616      10522.446      3071.4811      13593.927      65214.735      87120        
    472800   472800         4718.5266      305.70993      10495.485      3059.1106      13554.596      65040.911      87120        
    472900   472900         4719.5074      296.06847      10489.081      2962.6326      13451.713      65047.416      87120        
    473000   473000         4720.5032      291.56868      10524.75       2917.6051      13442.355      65126.906      87120        
    473100   473100         4721.4844      303.4839       10472.191      3036.8357      13509.027      64881.98       87120        
    473200   473200         4722.4643      303.16431      10454.819      3033.6377      13488.457      64944.885      87120        
    473300   473300         4723.4479      300.81018      10459.747      3010.0809      13469.827      64928.12       87120        
    473400   473400         4724.4173      294.66596      10547.359      2948.5983      13495.957      65211.651      87120        
    473500   473500         4725.3896      305.55599      10515.074      3057.5702      13572.644      65200.677      87120        
    473600   473600         4726.3758      304.10577      10553.036      3043.0585      13596.095      65280.707      87120        
    473700   473700         4727.3607      300.14932      10524.497      3003.468       13527.965      65123.676      87120        
    473800   473800         4728.3483      292.80388      10507.473      2929.9652      13437.438      65161.495      87120        
    473900   473900         4729.3372      297.09072      10530.882      2972.8619      13503.744      65236.212      87120        
    474000   474000         4730.3381      300.53877      10587.296      3007.365       13594.661      65370.123      87120        
    474100   474100         4731.3283      301.26254      10629.24       3014.6075      13643.848      65683.923      87120        
    474200   474200         4732.3131      303.75126      10586.137      3039.5111      13625.648      65517.602      87120        
    474300   474300         4733.3173      294.59279      10617.192      2947.8661      13565.058      65618.063      87120        
    474400   474400         4734.3077      298.66667      10584.97       2988.6317      13573.601      65584.112      87120        
    474500   474500         4735.3167      299.9277       10568.995      3001.2503      13570.245      65407.612      87120        
    474600   474600         4736.3383      303.81591      10541.007      3040.158       13581.165      65344.216      87120        
    474700   474700         4737.3431      302.97556      10565.711      3031.749       13597.46       65491.283      87120        
    474800   474800         4738.3429      299.30363      10562.763      2995.0055      13557.769      65448.756      87120        
    474900   474900         4739.365       293.13933      10564.687      2933.322       13498.009      65400.801      87120        
    475000   475000         4740.3822      298.209        10581.035      2984.052       13565.087      65498.124      87120        
    475100   475100         4741.371       304.63233      10555.492      3048.3276      13603.82       65334.113      87120        
    475200   475200         4742.363       303.21318      10511.009      3034.1268      13545.136      65211.355      87120        
    475300   475300         4743.3489      294.98547      10522.503      2951.7955      13474.299      65230.014      87120        
    475400   475400         4744.3223      299.81084      10471.877      3000.0809      13471.958      65014.522      87120        
    475500   475500         4745.3148      297.7435       10498.941      2979.394       13478.335      65146.72       87120        
    475600   475600         4746.3172      302.35936      10494.992      3025.5829      13520.575      65171.663      87120        
    475700   475700         4747.3262      296.42592      10578.841      2966.2095      13545.051      65444.855      87120        
    475800   475800         4748.3178      304.7833       10496.307      3049.8382      13546.145      65176.252      87120        
    475900   475900         4749.3285      304.51576      10499.575      3047.1611      13546.736      65170.785      87120        
    476000   476000         4750.3268      296.14903      10585.889      2963.4388      13549.328      65439.221      87120        
    476100   476100         4751.3123      299.90947      10566.506      3001.0679      13567.574      65388.589      87120        
    476200   476200         4752.2872      301.99972      10539.173      3021.9842      13561.157      65332.493      87120        
    476300   476300         4753.2738      298.02451      10475.696      2982.2059      13457.902      65066.967      87120        
    476400   476400         4754.285       298.80151      10451.017      2989.981       13440.998      64974.041      87120        
    476500   476500         4755.3115      299.29213      10541.535      2994.8905      13536.425      65347.624      87120        
    476600   476600         4756.3301      308.3619       10522.736      3085.6478      13608.384      65266.719      87120        
    476700   476700         4757.3464      300.5445       10567.999      3007.4224      13575.422      65409.329      87120        
    476800   476800         4758.3587      306.60174      10479.151      3068.0346      13547.186      65191.881      87120        
    476900   476900         4759.3695      294.16226      10549.011      2943.558       13492.569      65284.104      87120        
    477000   477000         4760.3711      296.46937      10561.244      2966.6443      13527.888      65453.364      87120        
    477100   477100         4761.3563      297.39326      10591.791      2975.8893      13567.681      65511.562      87120        
    477200   477200         4762.3516      302.64617      10573.148      3028.4529      13601.601      65447.734      87120        
    477300   477300         4763.3498      298.21507      10606.425      2984.1127      13590.537      65554.074      87120        
    477400   477400         4764.3473      294.47669      10600.143      2946.7044      13546.848      65540.706      87120        
    477500   477500         4765.3247      295.76006      10514.475      2959.5465      13474.022      65193.783      87120        
    477600   477600         4766.3251      297.05996      10492.057      2972.554       13464.611      65157.698      87120        
    477700   477700         4767.3258      306.60855      10483.768      3068.1028      13551.871      65049.525      87120        
    477800   477800         4768.3282      301.55709      10510.602      3017.555       13528.157      65185.631      87120        
    477900   477900         4769.3252      297.1465       10498.658      2973.42        13472.078      65115.417      87120        
    478000   478000         4770.3258      301.54137      10427.728      3017.3977      13445.126      64857.373      87120        
    478100   478100         4771.2967      292.46139      10501.586      2926.5381      13428.124      65016.554      87120        
    478200   478200         4772.2912      298.11256      10478.965      2983.087       13462.052      65035.071      87120        
    478300   478300         4773.269       298.86182      10552.913      2990.5846      13543.497      65317.978      87120        
    478400   478400         4774.2657      304.60654      10555.765      3048.0695      13603.835      65357.482      87120        
    478500   478500         4775.26        307.53831      10514.661      3077.4065      13592.068      65254.397      87120        
    478600   478600         4776.2504      293.11262      10556.128      2933.0547      13489.182      65395.176      87120        
    478700   478700         4777.2576      298.15524      10539.296      2983.5141      13522.81       65259.685      87120        
    478800   478800         4778.2464      304.07195      10524.22       3042.7201      13566.94       65313.528      87120        
    478900   478900         4779.2545      298.32732      10608.106      2985.236       13593.342      65622.329      87120        
    479000   479000         4780.2472      312.65863      10517.062      3128.6434      13645.705      65293.229      87120        
    479100   479100         4781.2557      304.76719      10572.452      3049.6771      13622.129      65451.566      87120        
    479200   479200         4782.2312      299.58461      10517.073      2997.8172      13514.89       65281.757      87120        
    479300   479300         4783.2285      296.24063      10542.794      2964.3554      13507.15       65306.363      87120        
    479400   479400         4784.2214      299.0166       10556.684      2992.1333      13548.817      65269.58       87120        
    479500   479500         4785.2161      305.68827      10532.338      3058.8939      13591.232      65292.512      87120        
    479600   479600         4786.214       298.25236      10537.155      2984.4859      13521.641      65233.816      87120        
    479700   479700         4787.2082      293.32624      10474.349      2935.1923      13409.541      65007.878      87120        
    479800   479800         4788.1866      296.75104      10476.445      2969.4628      13445.908      65061.197      87120        
    479900   479900         4789.1847      296.55955      10551.183      2967.5467      13518.729      65282.768      87120        
    480000   480000         4790.1846      300.04548      10521.708      3002.4289      13524.137      65157.959      87120        
    480100   480100         4791.1757      288.7465       10595.719      2889.3647      13485.084      65365.08       87120        
    480200   480200         4792.1658      304.88516      10522.95       3050.8575      13573.808      65111.008      87120        
    480300   480300         4793.1536      307.79623      10505.423      3079.9874      13585.411      65082.743      87120        
    480400   480400         4794.1564      299.99906      10511.743      3001.9644      13513.707      65152.527      87120        
    480500   480500         4795.1465      298.17188      10519.694      2983.6805      13503.374      65185.025      87120        
    480600   480600         4796.1476      300.88257      10533.51       3010.8053      13544.316      65276.864      87120        
    480700   480700         4797.148       298.9337       10589.145      2991.3038      13580.449      65379.047      87120        
    480800   480800         4798.1452      303.56989      10579.08       3037.6962      13616.776      65371.922      87120        
    480900   480900         4799.1484      297.1662       10584.9        2973.6172      13558.517      65454.319      87120        
    481000   481000         4800.1504      297.54097      10533.62       2977.3673      13510.988      65276.076      87120        
    481100   481100         4801.1423      296.67172      10585.251      2968.6691      13553.92       65381.454      87120        
    481200   481200         4802.144       304.39978      10576.838      3046.0006      13622.839      65358.211      87120        
    481300   481300         4803.1505      296.93178      10621.307      2971.2714      13592.579      65565.01       87120        
    481400   481400         4804.1571      295.07357      10566.655      2952.6771      13519.332      65362.474      87120        
    481500   481500         4805.1615      298.06188      10529.759      2982.5799      13512.339      65186.812      87120        
    481600   481600         4806.1643      306.69198      10503.694      3068.9376      13572.631      65148.879      87120        
    481700   481700         4807.151       305.42276      10597.553      3056.237       13653.79       65555.648      87120        
    481800   481800         4808.1522      304.39522      10563.221      3045.955       13609.176      65301.121      87120        
    481900   481900         4809.1446      297.60953      10551.449      2978.0534      13529.503      65337.697      87120        
    482000   482000         4810.1593      301.07993      10522.165      3012.7802      13534.945      65246.4        87120        
    482100   482100         4811.1629      300.32161      10518.867      3005.192       13524.059      65162.793      87120        
    482200   482200         4812.1648      298.5272       10521.523      2987.2361      13508.759      65220.438      87120        
    482300   482300         4813.1778      299.01285      10514.864      2992.0958      13506.959      65208.491      87120        
    482400   482400         4814.177       302.45013      10548.962      3026.4912      13575.453      65314.538      87120        
    482500   482500         4815.1669      300.00953      10588.34       3002.0692      13590.409      65431.188      87120        
    482600   482600         4816.1664      302.89646      10521.728      3030.9575      13552.686      65207.238      87120        
    482700   482700         4817.1611      293.43875      10511.939      2936.3181      13448.257      65085.249      87120        
    482800   482800         4818.1594      292.69694      10498.884      2928.8951      13427.779      65046.717      87120        
    482900   482900         4819.145       299.50343      10485.671      2997.0048      13482.676      65003.958      87120        
    483000   483000         4820.1402      297.6499       10530.026      2978.4573      13508.483      65083.198      87120        
    483100   483100         4821.1122      304.20592      10482.181      3044.0607      13526.242      65029.232      87120        
    483200   483200         4822.0883      298.12584      10513.856      2983.2199      13497.076      65098.296      87120        
    483300   483300         4823.0522      301.11018      10464.633      3013.0829      13477.715      64923.255      87120        
    483400   483400         4824.026       297.61591      10429.279      2978.1173      13407.396      64764.22       87120        
    483500   483500         4824.9883      293.63034      10470.099      2938.2353      13408.334      64909.874      87120        
    483600   483600         4825.977       298.3037       10521.348      2984.9996      13506.348      65062.124      87120        
    483700   483700         4826.9757      307.51002      10468.185      3077.1234      13545.309      65008.097      87120        
    483800   483800         4827.9686      299.3247       10524.993      2995.2164      13520.21       65132.351      87120        
    483900   483900         4828.9577      298.57556      10499.091      2987.72        13486.811      65079.301      87120        
    484000   484000         4829.9488      292.26827      10563.824      2924.6057      13488.43       65317.951      87120        
    484100   484100         4830.9259      303.2395       10603.913      3034.3902      13638.303      65503.216      87120        
    484200   484200         4831.9082      304.69586      10585.838      3048.9633      13634.802      65370.87       87120        
    484300   484300         4832.8832      298.13071      10580.411      2983.2686      13563.68       65457.791      87120        
    484400   484400         4833.8702      297.19092      10565.098      2973.8645      13538.963      65354.015      87120        
    484500   484500         4834.8598      295.98326      10569.141      2961.78        13530.921      65368.648      87120        
    484600   484600         4835.8578      303.1554       10565.406      3033.5486      13598.954      65311.77       87120        
    484700   484700         4836.8613      311.18912      10580.825      3113.9387      13694.763      65419.453      87120        
    484800   484800         4837.8568      301.43921      10612.248      3016.3754      13628.624      65490.605      87120        
    484900   484900         4838.872       298.83847      10600.377      2990.3509      13590.728      65493.633      87120        
    485000   485000         4839.8803      299.21351      10569.701      2994.1037      13563.805      65361.109      87120        
    485100   485100         4840.8499      299.90562      10516.835      3001.0294      13517.865      65297.348      87120        
    485200   485200         4841.8349      293.19607      10544.753      2933.8898      13478.643      65267.82       87120        
    485300   485300         4842.8223      298.48953      10578.176      2986.8591      13565.035      65419.429      87120        
    485400   485400         4843.8134      305.49084      10588.526      3056.9183      13645.444      65459.747      87120        
    485500   485500         4844.7997      299.15504      10626.95       2993.5186      13620.468      65556.06       87120        
    485600   485600         4845.8         296.74223      10590.807      2969.3746      13560.182      65393.826      87120        
    485700   485700         4846.7901      295.86143      10537.522      2960.5609      13498.083      65241.728      87120        
    485800   485800         4847.7658      299.39164      10473.077      2995.8862      13468.963      65040.74       87120        
    485900   485900         4848.7508      303.5164       10492.456      3037.1609      13529.617      65062.161      87120        
    486000   486000         4849.7444      306.87712      10521.235      3070.7903      13592.025      65166.453      87120        
    486100   486100         4850.7235      298.89941      10584.159      2990.9607      13575.12       65445.68       87120        
    486200   486200         4851.6998      297.67071      10546.031      2978.6656      13524.696      65211.205      87120        
    486300   486300         4852.6925      295.03982      10479.831      2952.3394      13432.171      65040.355      87120        
    486400   486400         4853.6872      291.88477      10525.563      2920.7681      13446.331      65195.05       87120        
    486500   486500         4854.6832      303.37478      10498.455      3035.7438      13534.199      65135.557      87120        
    486600   486600         4855.6787      301.77169      10537.775      3019.7023      13557.477      65295.676      87120        
    486700   486700         4856.6682      296.1193       10607.992      2963.1412      13571.133      65561.369      87120        
    486800   486800         4857.6783      303.04242      10590.936      3032.418       13623.354      65502.625      87120        
    486900   486900         4858.6797      306.07188      10582.242      3062.7325      13644.975      65476.32       87120        
    487000   487000         4859.6824      302.10348      10512.297      3023.0225      13535.319      65242.945      87120        
    487100   487100         4860.6644      294.27664      10578.135      2944.7025      13522.838      65375.613      87120        
    487200   487200         4861.6852      300.16161      10615.301      3003.591       13618.892      65589.395      87120        
    487300   487300         4862.6907      298.01593      10691.817      2982.1201      13673.937      65891.478      87120        
    487400   487400         4863.7122      303.00035      10635.924      3031.997       13667.921      65661.933      87120        
    487500   487500         4864.7137      296.74892      10615.53       2969.4416      13584.972      65580.502      87120        
    487600   487600         4865.7201      295.60303      10586.727      2957.9752      13544.702      65486.402      87120        
    487700   487700         4866.7212      306.07594      10597.587      3062.7732      13660.36       65384.047      87120        
    487800   487800         4867.7155      306.18491      10597.638      3063.8636      13661.501      65484.813      87120        
    487900   487900         4868.7155      294.90006      10599.177      2950.9409      13550.118      65463.225      87120        
    488000   488000         4869.7196      295.26548      10570.307      2954.5974      13524.905      65242.895      87120        
    488100   488100         4870.7145      302.14912      10513.13       3023.4791      13536.609      65101.401      87120        
    488200   488200         4871.7218      301.68502      10492.386      3018.8351      13511.221      64983.275      87120        
    488300   488300         4872.7133      295.69732      10454.045      2958.9187      13412.963      64799.97       87120        
    488400   488400         4873.6947      295.63935      10405.582      2958.3386      13363.92       64665.196      87120        
    488500   488500         4874.6876      295.783        10462.157      2959.7761      13421.933      64865.013      87120        
    488600   488600         4875.667       302.2282       10467.205      3024.2705      13491.476      64819.405      87120        
    488700   488700         4876.6482      302.79576      10413.883      3029.9498      13443.833      64652.66       87120        
    488800   488800         4877.6306      298.45509      10422.27       2986.5145      13408.784      64734.878      87120        
    488900   488900         4878.6249      300.09904      10426.978      3002.9649      13429.943      64706.688      87120        
    489000   489000         4879.6181      304.7169       10488.387      3049.1738      13537.561      64969.763      87120        
    489100   489100         4880.6019      306.70452      10514.407      3069.0631      13583.47       65104.678      87120        
    489200   489200         4881.5906      303.84732      10485.923      3040.4723      13526.396      65016.651      87120        
    489300   489300         4882.5809      298.73475      10516.687      2989.313       13506          65111.124      87120        
    489400   489400         4883.5747      294.11455      10575.857      2943.0806      13518.938      65394.807      87120        
    489500   489500         4884.5705      300.91157      10553.674      3011.0955      13564.77       65343.729      87120        
    489600   489600         4885.5934      301.12645      10572.616      3013.2457      13585.862      65374.363      87120        
    489700   489700         4886.6213      300.29124      10583.176      3004.8881      13588.064      65411.471      87120        
    489800   489800         4887.6278      296.93952      10556.246      2971.3488      13527.595      65364.533      87120        
    489900   489900         4888.6508      295.39671      10545.213      2955.9106      13501.124      65342.407      87120        
    490000   490000         4889.663       300.54028      10523.54       3007.3802      13530.92       65280.125      87120        
    490100   490100         4890.6547      299.9068       10592.99       3001.0412      13594.032      65489.926      87120        
    490200   490200         4891.6573      305.64744      10596.199      3058.4853      13654.684      65582.151      87120        
    490300   490300         4892.6787      304.02724      10579.61       3042.2726      13621.883      65460.744      87120        
    490400   490400         4893.6957      296.92497      10571.828      2971.2033      13543.031      65373.977      87120        
    490500   490500         4894.7114      295.4543       10576.101      2956.4869      13532.587      65407.14       87120        
    490600   490600         4895.7306      305.29512      10536.973      3054.9599      13591.932      65214.162      87120        
    490700   490700         4896.7443      301.52877      10575.771      3017.2715      13593.042      65374.729      87120        
    490800   490800         4897.7521      295.32117      10499.183      2955.1547      13454.338      65109.316      87120        
    490900   490900         4898.7798      293.47062      10476.411      2936.637       13413.048      64918.949      87120        
    491000   491000         4899.7738      298.63282      10499.034      2988.293       13487.327      65112.262      87120        
    491100   491100         4900.7675      300.76374      10525.028      3009.6162      13534.644      65161.434      87120        
    491200   491200         4901.7528      301.7607       10507.474      3019.5924      13527.067      65088.829      87120        
    491300   491300         4902.7254      297.25908      10493.332      2974.5465      13467.879      64973.377      87120        
    491400   491400         4903.6998      290.94871      10514.116      2911.4014      13425.518      65162.746      87120        
    491500   491500         4904.6712      297.84612      10474.483      2980.4208      13454.904      64958.214      87120        
    491600   491600         4905.6751      299.7649       10472.482      2999.6213      13472.103      64938.356      87120        
    491700   491700         4906.6633      303.37553      10471.427      3035.7513      13507.178      64963.873      87120        
    491800   491800         4907.6633      305.87458      10477.698      3060.7583      13538.456      65003.237      87120        
    491900   491900         4908.6384      301.44302      10518.509      3016.4135      13534.923      65160.285      87120        
    492000   492000         4909.6281      295.40947      10532.761      2956.0383      13488.799      65206.792      87120        
    492100   492100         4910.5858      290.53806      10640.797      2907.2922      13548.089      65585.847      87120        
    492200   492200         4911.5666      305.39668      10588.624      3055.9761      13644.6        65387.789      87120        
    492300   492300         4912.5537      305.22505      10547.32       3054.2587      13601.579      65280.63       87120        
    492400   492400         4913.5439      300.22338      10520.794      3004.209       13525.003      65165.393      87120        
    492500   492500         4914.5393      294.43339      10551.999      2946.2711      13498.27       65206.839      87120        
    492600   492600         4915.5252      303.70581      10493.204      3039.0563      13532.26       65103.806      87120        
    492700   492700         4916.5106      300.57744      10539.34       3007.752       13547.092      65304.936      87120        
    492800   492800         4917.5047      299.42496      10592.44       2996.2196      13588.66       65480.994      87120        
    492900   492900         4918.5073      309.37364      10577.181      3095.7718      13672.953      65486.236      87120        
    493000   493000         4919.4953      301.85656      10635.256      3020.5517      13655.807      65633.713      87120        
    493100   493100         4920.4835      295.47562      10628.714      2956.7003      13585.414      65585.264      87120        
    493200   493200         4921.4773      300.58525      10576.657      3007.8302      13584.487      65421.254      87120        
    493300   493300         4922.5021      303.96551      10577.929      3041.655       13619.584      65453.259      87120        
    493400   493400         4923.5163      306.40829      10584.147      3066.0988      13650.245      65452.291      87120        
    493500   493500         4924.5259      305.36012      10601.728      3055.6103      13657.338      65550.54       87120        
    493600   493600         4925.5383      300.95977      10574.583      3011.5778      13586.16       65418.573      87120        
    493700   493700         4926.5636      296.23006      10545.741      2964.2496      13509.991      65302.773      87120        
    493800   493800         4927.5731      294.76785      10574.48       2949.6179      13524.098      65357.675      87120        
    493900   493900         4928.5776      301.49494      10592.576      3016.9331      13609.51       65490.759      87120        
    494000   494000         4929.5745      300.84642      10600.097      3010.4436      13610.541      65499.434      87120        
    494100   494100         4930.5729      299.05594      10573.109      2992.527       13565.636      65421.785      87120        
    494200   494200         4931.5822      299.51063      10551.31       2997.0768      13548.387      65277.183      87120        
    494300   494300         4932.5728      298.83124      10564.674      2990.2785      13554.952      65366.734      87120        
    494400   494400         4933.5852      296.66125      10605.49       2968.5644      13574.055      65444.312      87120        
    494500   494500         4934.5824      303.72061      10556.324      3039.2044      13595.528      65391.794      87120        
    494600   494600         4935.5967      298.90983      10585.677      2991.065       13576.742      65385.268      87120        
    494700   494700         4936.6076      296.65956      10539.375      2968.5474      13507.923      65201.887      87120        
    494800   494800         4937.6038      291.13499      10542.233      2913.2654      13455.498      65168.956      87120        
    494900   494900         4938.5976      297.90979      10533.319      2981.0579      13514.377      65197.521      87120        
    495000   495000         4939.5845      306.17636      10516.814      3063.778       13580.592      65129.101      87120        
    495100   495100         4940.5619      304.79249      10482.517      3049.9302      13532.447      64982.592      87120        
    495200   495200         4941.5375      292.80137      10529.481      2929.9402      13459.422      65132.872      87120        
    495300   495300         4942.5157      297.55546      10500.636      2977.5123      13478.148      65011.127      87120        
    495400   495400         4943.5126      300.37213      10514.137      3005.6975      13519.834      65110.054      87120        
    495500   495500         4944.4966      301.37735      10532.494      3015.7564      13548.25       65217.008      87120        
    495600   495600         4945.4991      300.67476      10539.419      3008.7258      13548.144      65247.256      87120        
    495700   495700         4946.4868      289.18926      10582.781      2893.7953      13476.576      65307.61       87120        
    495800   495800         4947.4813      296.99856      10487.283      2971.9396      13459.223      65073.215      87120        
    495900   495900         4948.4819      301.43675      10575.387      3016.3508      13591.738      65260.268      87120        
    496000   496000         4949.4683      307.80783      10521.383      3080.1035      13601.486      65223.343      87120        
    496100   496100         4950.4519      302.6271       10507.294      3028.2621      13535.556      65126.459      87120        
    496200   496200         4951.4493      298.13831      10551.616      2983.3446      13534.961      65321.803      87120        
    496300   496300         4952.4417      300.67892      10518.164      3008.7675      13526.931      65240.458      87120        
    496400   496400         4953.4318      293.54432      10542.157      2937.3745      13479.532      65203.17       87120        
    496500   496500         4954.4238      295.62336      10485.934      2958.1786      13444.113      65083.582      87120        
    496600   496600         4955.4149      296.80332      10549.197      2969.986       13519.183      65274.361      87120        
    496700   496700         4956.421       309.81735      10498.667      3100.2119      13598.879      65134.722      87120        
    496800   496800         4957.4057      303.64059      10500.599      3038.4036      13539.002      65181.844      87120        
    496900   496900         4958.4077      296.28646      10535.397      2964.814       13500.211      65259.311      87120        
    497000   497000         4959.4183      299.65171      10513.207      2998.4886      13511.696      65140.485      87120        
    497100   497100         4960.4096      303.0624       10549.317      3032.618       13581.935      65358.664      87120        
    497200   497200         4961.4065      308.62804      10586.296      3088.3109      13674.607      65429.171      87120        
    497300   497300         4962.4048      300.57465      10630.093      3007.7241      13637.817      65533.639      87120        
    497400   497400         4963.4009      303.12022      10505.185      3033.1965      13538.382      65172.436      87120        
    497500   497500         4964.421       299.66646      10527.143      2998.6363      13525.779      65191.916      87120        
    497600   497600         4965.4269      302.04375      10513.851      3022.4248      13536.276      65191.919      87120        
    497700   497700         4966.4109      302.78345      10495.41       3029.8266      13525.236      65143.684      87120        
    497800   497800         4967.4398      297.12277      10520.707      2973.1826      13493.889      65164.334      87120        
    497900   497900         4968.432       296.13632      10488.841      2963.3116      13452.152      65060.472      87120        
    498000   498000         4969.4343      301.59985      10487.291      3017.9828      13505.274      65075.151      87120        
    498100   498100         4970.4152      307.08487      10458.026      3072.8691      13530.896      65039.26       87120        
    498200   498200         4971.3887      303.45252      10452.832      3036.5218      13489.354      64903.487      87120        
    498300   498300         4972.3895      300.12721      10471.925      3003.2468      13475.172      65032.712      87120        
    498400   498400         4973.397       293.30288      10548.816      2934.9586      13483.775      65263.642      87120        
    498500   498500         4974.395       296.18007      10619.843      2963.7493      13583.593      65568.81       87120        
    498600   498600         4975.3814      304.74014      10617.87       3049.4064      13667.277      65559.029      87120        
    498700   498700         4976.4015      299.72369      10606.417      2999.2089      13605.626      65580.325      87120        
    498800   498800         4977.4033      298.15876      10544.761      2983.5492      13528.31       65290.244      87120        
    498900   498900         4978.3932      301.19229      10505.339      3013.9046      13519.243      65175.627      87120        
    499000   499000         4979.4059      298.74522      10556.339      2989.4177      13545.757      65332.88       87120        
    499100   499100         4980.3962      303.00789      10559.49       3032.0725      13591.562      65315.986      87120        
    499200   499200         4981.379       310.98544      10540.821      3111.9005      13652.722      65280.246      87120        
    499300   499300         4982.3873      300.2988       10587.68       3004.9637      13592.644      65437.975      87120        
    499400   499400         4983.3873      296.43737      10544.559      2966.3241      13510.883      65206.979      87120        
    499500   499500         4984.3651      298.39279      10491.785      2985.8911      13477.676      65095.487      87120        
    499600   499600         4985.3579      302.79287      10487.259      3029.9209      13517.179      65051.581      87120        
    499700   499700         4986.3387      303.60191      10552.213      3038.0166      13590.23       65201.982      87120        
    499800   499800         4987.336       299.47285      10574.375      2996.6988      13571.074      65408.226      87120        
    499900   499900         4988.3381      291.41151      10512.502      2916.0324      13428.535      65140.426      87120        
    500000   500000         4989.3374      292.85908      10486.302      2930.5176      13416.819      65015.146      87120        
Loop time of 4989.34 on 8 procs for 500000 steps with 4353 atoms

Performance: 8.658 ns/day, 2.772 hours/ns, 100.214 timesteps/s, 436.230 katom-step/s
99.1% CPU use with 8 MPI tasks x no OpenMP threads

MPI task timing breakdown:
Section |  min time  |  avg time  |  max time  |%varavg| %total
---------------------------------------------------------------
Pair    | 112.76     | 1323.2     | 4189.9     |4483.6 | 26.52
Bond    | 1.4964     | 17.344     | 23.773     | 219.5 |  0.35
Neigh   | 528.2      | 530.58     | 533.15     |   8.3 | 10.63
Comm    | 127.41     | 2963.7     | 4160       |2963.3 | 59.40
Output  | 1.6414     | 1.7649     | 1.9504     |   7.0 |  0.04
Modify  | 120.58     | 134.87     | 146.4      |  86.5 |  2.70
Other   |            | 17.84      |            |       |  0.36

Nlocal:        544.125 ave        1375 max         220 min
Histogram: 4 2 0 0 0 0 0 0 0 2
Nghost:         4608.5 ave        6925 max         736 min
Histogram: 2 0 0 0 0 0 0 4 0 2
Neighs:         192124 ave      609219 max       18890 min
Histogram: 4 2 0 0 0 0 0 0 0 2

Total # of neighbors = 1536994
Ave neighs/atom = 353.08844
Ave special neighs/atom = 6.3542385
Neighbor list builds = 34608
Dangerous builds = 0
unfix                  mynvt


write_data             nvt_500ps.data
System init for write_data ...
Generated 21 of 21 mixed pair_coeff terms from arithmetic mixing rule
WARNING: Dihedrals are defined but no dihedral style is set (../force.cpp:207)
WARNING: Likewise 1-4 special neighbor interactions != 1.0 (../force.cpp:209)
WARNING: Impropers are defined but no improper style is set (../force.cpp:212)












Total wall time: 1:23:09
