LAMMPS (29 Aug 2024)
units                  real
atom_style	       full
bond_style	       harmonic
angle_style	       harmonic
boundary	       p p p

neighbor 2.0 bin
neigh_modify every 1 delay 0 check yes

# ============= read data and parameters files

pair_style            lj/cut 10.0
pair_modify           shift yes mix arithmetic

read_data             equilb_100ps.data
Reading data file ...
  orthogonal box = (-0.1495 -0.193001 -38.75) to (32.8505 32.806999 41.25)
  1 by 2 by 4 MPI processor grid
  reading atoms ...
  4343 atoms
  reading velocities ...
  4343 velocities
  scanning bonds ...
  2 = max bonds/atom
  scanning angles ...
  3 = max angles/atom
  scanning dihedrals ...
  8 = max dihedrals/atom
  scanning impropers ...
  2 = max impropers/atom
  orthogonal box = (-0.1495 -0.193001 -38.75) to (32.8505 32.806999 41.25)
  1 by 2 by 4 MPI processor grid
  reading bonds ...
  3907 bonds
  reading angles ...
  4615 angles
  reading dihedrals ...
  6903 dihedrals
  reading impropers ...
  1144 impropers
Finding 1-2 1-3 1-4 neighbors ...
  special bond factors lj:    0        0        0       
  special bond factors coul:  0        0        0       
     3 = max # of 1-2 neighbors
     6 = max # of 1-3 neighbors
    18 = max # of 1-4 neighbors
    18 = max # of special neighbors
  special bonds CPU = 0.001 seconds
  read_data CPU = 0.083 seconds

pair_coeff  1  1      0.0859  3.3997
pair_coeff  2  2      0.0559  2.757
pair_coeff  3  3      0.0859  3.3997
pair_coeff  4  4      0.0859  3.3997
pair_coeff  5  5      0.0000  1.0000
pair_coeff  6  6      0.1598  3.0330
pair_coeff  7  7      0.1521  3.1507

bond_coeff     1      938.0    1.42
bond_coeff     2      190.96   1.149
bond_coeff     3      938.0    1.42
bond_coeff     4      938.0    1.42
bond_coeff     5      450.0    0.9572

angle_coeff    1      126      120.0
angle_coeff    2      126      120.0
angle_coeff    3      126      120.0
angle_coeff    4      55.0     104.52
angle_coeff    5      295.4    180.0


group  water     type 5  7
2985 atoms in group water
group  memb      type 1
432 atoms in group memb
group  CG1       type 3
448 atoms in group CG1
group  CG2       type 4
448 atoms in group CG2
group  CG3       type 3 4
896 atoms in group CG3

dump dump_1 all custom 500 dump.lammpstrj id type x y z

timestep 1.0
thermo_style custom step time cpu temp pe ke etotal press vol
thermo 100

fix                    myshk1  water shake 1.0e-5 200 0 b 5 a 4
Finding SHAKE clusters ...
       0 = # of size 2 clusters
       0 = # of size 3 clusters
       0 = # of size 4 clusters
     995 = # of frozen angles
  find clusters CPU = 0.000 seconds

fix                    freeze memb setforce 0.0 0.0 0.0

fix                    pistonkeep CG3  setforce  0.0   0.0    NULL
fix                    myforce1   CG1  aveforce  NULL  NULL  -1.439     #P=250 bars
fix                    freeze1    CG2  setforce 0.0 0.0 0.0

fix                    mynvt  all nvt temp 300 300 100.0
run                    500000

CITE-CITE-CITE-CITE-CITE-CITE-CITE-CITE-CITE-CITE-CITE-CITE-CITE

Your simulation uses code contributions which should be cited:

- Type Label Framework: https://doi.org/10.1021/acs.jpcb.3c08419

@Article{Gissinger24,
 author = {Jacob R. Gissinger, Ilia Nikiforov, Yaser Afshar, Brendon Waters, Moon-ki Choi, Daniel S. Karls, Alexander Stukowski, Wonpil Im, Hendrik Heinz, Axel Kohlmeyer, and Ellad B. Tadmor},
 title = {Type Label Framework for Bonded Force Fields in LAMMPS},
 journal = {J. Phys. Chem. B},
 year =    2024,
 volume =  128,
 number =  13,
 pages =   {3282â€“-3297}
}

CITE-CITE-CITE-CITE-CITE-CITE-CITE-CITE-CITE-CITE-CITE-CITE-CITE

Generated 21 of 21 mixed pair_coeff terms from arithmetic mixing rule
WARNING: Dihedrals are defined but no dihedral style is set (../force.cpp:207)
WARNING: Likewise 1-4 special neighbor interactions != 1.0 (../force.cpp:209)
WARNING: Impropers are defined but no improper style is set (../force.cpp:212)
Neighbor list info ...
  update: every = 1 steps, delay = 0 steps, check = yes
  max neighbors/atom: 2000, page size: 100000
  master list distance cutoff = 12
  ghost atom cutoff = 12
  binsize = 6, bins = 6 6 14
  1 neighbor lists, perpetual/occasional/extra = 1 0 0
  (1) pair lj/cut, perpetual
      attributes: half, newton on
      pair build: half/bin/newton
      stencil: half/bin/3d
      bin: standard
Per MPI rank memory allocation (min/avg/max) = 12.35 | 12.82 | 13.41 Mbytes
   Step          Time           CPU            Temp          PotEng         KinEng         TotEng         Press          Volume    
         0   0              0              297.1293       7536.492       2964.3911      10500.883      57565.199      87120        
       100   100            0.44475937     311.89035      7518.8469      3111.6587      10630.506      57703.384      87120        
       200   200            0.89146922     321.90671      7574.0361      3211.5896      10785.626      58017.519      87120        
       300   300            1.3307785      335.23515      7660.0719      3344.5644      11004.636      58736.041      87120        
       400   400            1.79089        348.71146      7713.6143      3479.0144      11192.629      59158.987      87120        
       500   500            2.2624015      358.8932       7730.0603      3580.5954      11310.656      59517.612      87120        
       600   600            2.7816269      363.45428      7763.4956      3626.1002      11389.596      60006.032      87120        
       700   700            3.3527731      365.4323       7796.5309      3645.8345      11442.365      60290.783      87120        
       800   800            3.980921       360.75908      7867.7392      3599.2108      11466.95       60932.573      87120        
       900   900            4.6661434      354.93708      7928.1858      3541.126       11469.312      61338.621      87120        
      1000   1000           5.3996002      350.04435      7967.6341      3492.3124      11459.947      61721.652      87120        
      1100   1100           6.1662309      344.97583      8033.1076      3441.745       11474.853      62385.14       87120        
      1200   1200           6.9721593      331.80705      8209.6341      3310.363       11519.997      63215.457      87120        
      1300   1300           7.8022934      314.7808       8494.1393      3140.496       11634.635      64629.25       87120        
      1400   1400           8.6866646      302.02998      8869.2323      3013.284       11882.516      66319.311      87120        
      1500   1500           9.6261976      289.53793      9366.6683      2888.6537      12255.322      68453.338      87120        
      1600   1600           10.626146      275.57066      10003.989      2749.3055      12753.294      71042.514      87120        
      1700   1700           11.638269      291.05391      10439.866      2903.7783      13343.644      72721.027      87120        
      1800   1800           12.689557      311.65569      10602.102      3109.3175      13711.419      73391.376      87120        
      1900   1900           13.712217      320.6531       10448.494      3199.0826      13647.577      72744.639      87120        
      2000   2000           14.735283      315.8372       9917.5977      3151.0355      13068.633      70672.39       87120        
      2100   2100           15.721482      303.62833      9340.513       3029.2303      12369.743      68285.431      87120        
      2200   2200           16.664971      292.36055      8844.6204      2916.8144      11761.435      66106.593      87120        
      2300   2300           17.576387      284.79074      8486.1263      2841.292       11327.418      64498.053      87120        
      2400   2400           18.44644       290.27067      8258.2223      2895.964       11154.186      63352.38       87120        
      2500   2500           19.283559      290.17831      8146.7136      2895.0426      11041.756      62634.531      87120        
      2600   2600           20.124525      297.23213      8006.2328      2965.417       10971.65       61962.782      87120        
      2700   2700           20.957753      296.90944      7950.9145      2962.1976      10913.112      61496.265      87120        
      2800   2800           21.773874      295.02179      7941.7464      2943.3649      10885.111      61377.166      87120        
      2900   2900           22.58116       300.01357      7908.5679      2993.1668      10901.735      61030.977      87120        
      3000   3000           23.368218      301.25461      7929.179       3005.5483      10934.727      61063.004      87120        
      3100   3100           24.143748      301.56214      7979.3031      3008.6165      10987.92       61212.159      87120        
      3200   3200           24.91353       310.13858      7950.4119      3094.1816      11044.594      61106.854      87120        
      3300   3300           25.694872      303.87379      7961.5919      3031.6793      10993.271      61196.157      87120        
      3400   3400           26.473127      295.13616      8062.4526      2944.506       11006.959      61560.85       87120        
      3500   3500           27.273284      302.39941      8109.026       3016.9698      11125.996      61990.016      87120        
      3600   3600           28.095593      305.50871      8189.281       3047.9905      11237.271      62464.667      87120        
      3700   3700           28.913924      305.17725      8279.3788      3044.6836      11324.062      62993.852      87120        
      3800   3800           29.754697      301.03561      8425.4199      3003.3634      11428.783      63809.235      87120        
      3900   3900           30.607733      301.35305      8549.6361      3006.5305      11556.167      64301.828      87120        
      4000   4000           31.477772      295.23644      8772.0254      2945.5064      11717.532      65387.467      87120        
      4100   4100           32.37609       296.99208      8971.9405      2963.0221      11934.963      66365.506      87120        
      4200   4200           33.311897      295.88443      9170.3072      2951.9712      12122.278      67178.568      87120        
      4300   4300           34.251326      301.09411      9301.0208      3003.947       12304.968      67812.952      87120        
      4400   4400           35.205921      302.4259       9379.5137      3017.234       12396.748      68091.019      87120        
      4500   4500           36.156602      309.43468      9300.1183      3087.159       12387.277      67853.07       87120        
      4600   4600           37.129266      300.81056      9255.4169      3001.1182      12256.535      67584.928      87120        
      4700   4700           38.092435      301.03013      9051.1615      3003.3087      12054.47       66781.376      87120        
      4800   4800           39.040148      296.87391      8881.2059      2961.8431      11843.049      66053.987      87120        
      4900   4900           39.986014      296.39182      8725.3416      2957.0333      11682.375      65230.67       87120        
      5000   5000           40.893262      293.55301      8633.97        2928.7112      11562.681      64785.375      87120        
      5100   5100           41.752731      296.29363      8493.219       2956.0538      11449.273      64118.436      87120        
      5200   5200           42.609139      294.54105      8415.9892      2938.5687      11354.558      63630.792      87120        
      5300   5300           43.445746      304.6358       8269.5495      3039.2817      11308.831      63078.062      87120        
      5400   5400           44.273427      302.75811      8222.6813      3020.5484      11243.23       62755.202      87120        
      5500   5500           45.094765      296.80372      8232.7691      2961.1428      11193.912      62838.977      87120        
      5600   5600           45.917168      296.49752      8204.4812      2958.0879      11162.569      62624.315      87120        
      5700   5700           46.740459      300.39281      8199.079       2996.9503      11196.029      62528.386      87120        
      5800   5800           47.547889      302.62609      8229.6922      3019.2313      11248.923      62730.937      87120        
      5900   5900           48.367214      301.34696      8276.131       3006.4696      11282.601      62959.142      87120        
      6000   6000           49.193732      296.1384       8338.7503      2954.5051      11293.255      63301.812      87120        
      6100   6100           50.006396      303.11047      8349.4307      3024.0638      11373.495      63464.214      87120        
      6200   6200           50.81515       302.82291      8414.3864      3021.1949      11435.581      63781.69       87120        
      6300   6300           51.654991      301.35385      8515.3046      3006.5384      11521.843      64297.73       87120        
      6400   6400           52.508768      309.27036      8525.1693      3085.5196      11610.689      64443.228      87120        
      6500   6500           53.396783      299.32889      8697.4058      2986.3359      11683.742      65086.765      87120        
      6600   6600           54.305534      301.24211      8782.2376      3005.4236      11787.661      65515.452      87120        
      6700   6700           55.229364      299.86342      8855.8526      2991.6687      11847.521      65894.971      87120        
      6800   6800           56.165334      299.73743      8884.4126      2990.4117      11874.824      65982.255      87120        
      6900   6900           57.084917      293.76585      8886.9801      2930.8347      11817.815      66023.363      87120        
      7000   7000           58.020131      291.67428      8869.3361      2909.9676      11779.304      65983.45       87120        
      7100   7100           58.931532      305.52289      8804.8122      3048.132       11852.944      65725.258      87120        
      7200   7200           59.844852      301.74183      8785.8375      3010.4092      11796.247      65545.242      87120        
      7300   7300           60.749151      297.30219      8708.1246      2966.1159      11674.241      65177.598      87120        
      7400   7400           61.648222      296.74595      8560.1711      2960.5664      11520.738      64532.713      87120        
      7500   7500           62.540301      297.55478      8481.3963      2968.6359      11450.032      64217.31       87120        
      7600   7600           63.427827      299.39548      8482.8127      2987.0002      11469.813      64086.602      87120        
      7700   7700           64.301408      297.04006      8450.4843      2963.5008      11413.985      63888.055      87120        
      7800   7800           65.161325      298.78498      8389.4929      2980.9094      11370.402      63619.824      87120        
      7900   7900           66.011167      300.72562      8356.5591      3000.2707      11356.83       63513.894      87120        
      8000   8000           66.856412      298.80919      8443.7075      2981.1509      11424.858      63742.342      87120        
      8100   8100           67.685337      304.22892      8418.8335      3035.2223      11454.056      63621.224      87120        
      8200   8200           68.52037       300.6101       8415.4318      2999.1182      11414.55       63647.864      87120        
      8300   8300           69.348104      299.38443      8435.4355      2986.89        11422.326      63748.345      87120        
      8400   8400           70.180814      297.23207      8487.097       2965.4164      11452.513      63910.783      87120        
      8500   8500           71.024453      305.08329      8458.6188      3043.7462      11502.365      63926.045      87120        
      8600   8600           71.882189      294.73162      8527.4207      2940.47        11467.891      64167.516      87120        
      8700   8700           72.746718      298.19582      8559.139       2975.0314      11534.17       64351.493      87120        
      8800   8800           73.616964      301.5296       8625.9545      3008.2919      11634.246      64678.01       87120        
      8900   8900           74.499677      300.57502      8645.6329      2998.7682      11644.401      64756.391      87120        
      9000   9000           75.409354      296.49395      8693.0582      2958.0523      11651.111      65050.626      87120        
      9100   9100           76.285607      299.61933      8723.8727      2989.2335      11713.106      65147.469      87120        
      9200   9200           77.172118      301.564        8707.0498      3008.6351      11715.685      65123.932      87120        
      9300   9300           78.053224      291.61875      8717.6684      2909.4136      11627.082      65072.213      87120        
      9400   9400           78.963168      294.41848      8699.5038      2937.3458      11636.85       65104.26       87120        
      9500   9500           79.842603      299.55806      8696.8375      2988.6222      11685.46       65092.229      87120        
      9600   9600           80.741071      299.53697      8693.6165      2988.4118      11682.028      65056.36       87120        
      9700   9700           81.646833      307.33452      8566.2094      3066.2062      11632.416      64602.143      87120        
      9800   9800           82.536642      292.02141      8605.3608      2913.4308      11518.792      64637.307      87120        
      9900   9900           83.424884      297.56249      8466.7437      2968.7129      11435.457      64192.636      87120        
     10000   10000          84.301323      301.39497      8484.7626      3006.9487      11491.711      64182.067      87120        
     10100   10100          85.162435      302.34503      8479.7231      3016.4272      11496.15       64017.366      87120        
     10200   10200          86.036619      297.40218      8479.399       2967.1136      11446.513      64067.973      87120        
     10300   10300          86.898244      295.20925      8485.828       2945.2351      11431.063      64029.132      87120        
     10400   10400          87.757226      303.20957      8440.7524      3025.0525      11465.805      63841.619      87120        
     10500   10500          88.630304      306.50281      8447.7397      3057.9084      11505.648      63908.859      87120        
     10600   10600          89.494582      298.85617      8474.4761      2981.6196      11456.096      63958.519      87120        
     10700   10700          90.359966      298.74191      8422.554       2980.4797      11403.034      63840.856      87120        
     10800   10800          91.224562      299.12435      8438.2122      2984.2952      11422.507      63882.845      87120        
     10900   10900          92.094287      299.01944      8510.2224      2983.2485      11493.471      64152.92       87120        
     11000   11000          92.965878      303.95193      8518.7091      3032.4589      11551.168      64278.84       87120        
     11100   11100          93.829568      306.41202      8484.4989      3057.0027      11541.502      64145.911      87120        
     11200   11200          94.694139      296.91677      8548.684       2962.2707      11510.955      64267.067      87120        
     11300   11300          95.562354      301.39857      8525.4569      3006.9846      11532.442      64276.181      87120        
     11400   11400          96.452018      305.67231      8500.8681      3049.6227      11550.491      64170.433      87120        
     11500   11500          97.330154      299.68964      8527.6446      2989.935       11517.58       64294.537      87120        
     11600   11600          98.209917      291.57123      8582.7609      2908.9395      11491.7        64489.844      87120        
     11700   11700          99.105411      298.00396      8596.815       2973.1173      11569.932      64524.328      87120        
     11800   11800          99.99829       308.67454      8541.9226      3079.5752      11621.498      64371.793      87120        
     11900   11900          100.89412      299.95001      8570.0749      2992.5327      11562.608      64487.728      87120        
     12000   12000          101.77591      302.48031      8516.6659      3017.7769      11534.443      64306.345      87120        
     12100   12100          102.62767      299.86919      8523.7438      2991.7263      11515.47       64194.195      87120        
     12200   12200          103.51003      298.71999      8552.336       2980.261       11532.597      64315.283      87120        
     12300   12300          104.38196      296.89006      8571.156       2962.0042      11533.16       64375.142      87120        
     12400   12400          105.25722      301.04867      8524.0235      3003.4937      11527.517      64250.717      87120        
     12500   12500          106.13912      301.75964      8534.9956      3010.5869      11545.582      64255.852      87120        
     12600   12600          107.00783      305.46055      8507.0874      3047.5101      11554.598      64161.842      87120        
     12700   12700          107.87209      301.6743       8452.8969      3009.7355      11462.632      63986.597      87120        
     12800   12800          108.72301      296.64735      8431.1413      2959.5827      11390.724      63838.769      87120        
     12900   12900          109.58557      299.88198      8431.7316      2991.8539      11423.585      63854.599      87120        
     13000   13000          110.45269      304.31978      8458.2267      3036.1288      11494.355      63964.884      87120        
     13100   13100          111.31278      298.59565      8478.7192      2979.0205      11457.74       64020.645      87120        
     13200   13200          112.17892      295.42039      8452.3985      2947.3416      11399.74       63947.31       87120        
     13300   13300          113.05417      300.19286      8476.9708      2994.9555      11471.926      64052.264      87120        
     13400   13400          113.9289       302.27309      8487.9098      3015.7095      11503.619      64089.361      87120        
     13500   13500          114.81494      296.8898       8505.6675      2962.0016      11467.669      64076.288      87120        
     13600   13600          115.69567      294.60792      8500.1447      2939.2358      11439.38       64180.365      87120        
     13700   13700          116.57797      295.0896       8504.334       2944.0414      11448.375      64226.434      87120        
     13800   13800          117.45587      302.19811      8580.9269      3014.9614      11595.888      64468.566      87120        
     13900   13900          118.34747      303.6264       8592.1374      3029.2111      11621.349      64620.707      87120        
     14000   14000          119.21251      305.74375      8500.0986      3050.3354      11550.434      64204.729      87120        
     14100   14100          120.08229      301.1964       8510.1567      3004.9676      11515.124      64282.461      87120        
     14200   14200          120.95432      298.87573      8537.7386      2981.8148      11519.553      64343.658      87120        
     14300   14300          121.84253      299.38721      8555.5103      2986.9177      11542.428      64332.697      87120        
     14400   14400          122.71534      303.23921      8559.5046      3025.3482      11584.853      64436.79       87120        
     14500   14500          123.59029      304.49154      8514.4584      3037.8425      11552.301      64233.413      87120        
     14600   14600          124.46782      295.51813      8488.8007      2948.3168      11437.117      64111.735      87120        
     14700   14700          125.33585      299.44946      8448.5433      2987.5387      11436.082      63973.618      87120        
     14800   14800          126.20666      304.35111      8482.7091      3036.4414      11519.15       64048.378      87120        
     14900   14900          127.0886       306.31455      8472.6972      3056.0302      11528.727      64053.623      87120        
     15000   15000          127.96146      292.89906      8472.8543      2922.1869      11395.041      63897.401      87120        
     15100   15100          128.82369      292.94676      8464.4136      2922.6629      11387.076      63943.236      87120        
     15200   15200          129.68929      300.49554      8445.5605      2997.9752      11443.536      63865.512      87120        
     15300   15300          130.55132      303.39367      8478.5618      3026.8893      11505.451      63927.675      87120        
     15400   15400          131.42816      302.2221       8519.3214      3015.2007      11534.522      64184.271      87120        
     15500   15500          132.30075      298.12042      8490.4233      2974.2792      11464.703      63982.595      87120        
     15600   15600          133.1843       295.81326      8464.1215      2951.2612      11415.383      63967.189      87120        
     15700   15700          134.05066      302.8956       8417.2202      3021.9201      11439.14       63843.495      87120        
     15800   15800          134.92679      296.95794      8523.711       2962.6815      11486.392      64143.049      87120        
     15900   15900          135.78749      305.97348      8519.5835      3052.6274      11572.211      64229.425      87120        
     16000   16000          136.65388      302.97022      8496.1872      3022.6646      11518.852      64077.14       87120        
     16100   16100          137.50895      304.62878      8448.2467      3039.2117      11487.458      63992.641      87120        
     16200   16200          138.36928      295.37382      8535.5617      2946.8771      11482.439      64285.705      87120        
     16300   16300          139.23165      302.66653      8546.3661      3019.6348      11566.001      64301.529      87120        
     16400   16400          140.09904      298.68088      8644.349       2979.8708      11624.22       64739.256      87120        
     16500   16500          140.96166      307.72571      8565.5104      3070.1091      11635.62       64430.49       87120        
     16600   16600          141.82629      294.55303      8570.1721      2938.6882      11508.86       64446.888      87120        
     16700   16700          142.69848      293.38896      8574.67        2927.0745      11501.745      64412.903      87120        
     16800   16800          143.56198      304.68943      8522.9004      3039.8167      11562.717      64156.01       87120        
     16900   16900          144.42518      296.11656      8573.9919      2954.2872      11528.279      64337.734      87120        
     17000   17000          145.2728       292.70297      8516.8877      2920.2305      11437.118      64145.465      87120        
     17100   17100          146.14276      293.32557      8518.941       2926.4421      11445.383      64198.701      87120        
     17200   17200          146.97995      300.9436       8490.9346      3002.4455      11493.38       64027.925      87120        
     17300   17300          147.82811      296.54279      8531.4845      2958.5395      11490.024      64106.205      87120        
     17400   17400          148.67906      301.21705      8472.1798      3005.1736      11477.353      63986.993      87120        
     17500   17500          149.54801      300.46555      8430.9437      2997.676       11428.62       63765.253      87120        
     17600   17600          150.40582      291.35346      8493.9574      2906.7668      11400.724      64085.622      87120        
     17700   17700          151.28288      302.35914      8495.1074      3016.568       11511.675      64090.639      87120        
     17800   17800          152.14008      303.12897      8500.585       3024.2484      11524.833      64033.65       87120        
     17900   17900          152.99387      300.25259      8457.4397      2995.5515      11452.991      63930.872      87120        
     18000   18000          153.844        295.86505      8489.562       2951.7779      11441.34       63956.158      87120        
     18100   18100          154.68775      297.08592      8527.4744      2963.9583      11491.433      64143.075      87120        
     18200   18200          155.52838      310.32385      8494.7241      3096.03        11590.754      64090.87       87120        
     18300   18300          156.38508      304.40304      8503.8594      3036.9595      11540.819      64013.606      87120        
     18400   18400          157.23402      297.60609      8498.3001      2969.1479      11467.448      64033.033      87120        
     18500   18500          158.08487      298.49505      8475.374       2978.0168      11453.391      63886.55       87120        
     18600   18600          158.93853      300.62419      8488.6495      2999.2588      11487.908      64016.61       87120        
     18700   18700          159.78469      302.5106       8525.9821      3018.0791      11544.061      64163.837      87120        
     18800   18800          160.63704      301.44625      8504.2246      3007.4603      11511.685      63992.015      87120        
     18900   18900          161.4919       296.2647       8500.641       2955.7652      11456.406      64076.416      87120        
     19000   19000          162.34412      297.32635      8513.7785      2966.357       11480.135      64054.546      87120        
     19100   19100          163.19617      308.22741      8452.1656      3075.1144      11527.28       63886.683      87120        
     19200   19200          164.0421       305.67221      8503.8907      3049.6217      11553.512      64082.721      87120        
     19300   19300          164.90166      294.65668      8532.9289      2939.7222      11472.651      64105.833      87120        
     19400   19400          165.74493      300.19202      8468.9769      2994.9471      11463.924      63917.542      87120        
     19500   19500          166.60579      297.98144      8550.6639      2972.8927      11523.557      64192.704      87120        
     19600   19600          167.43932      310.64477      8515.4951      3099.2318      11614.727      64189.484      87120        
     19700   19700          168.2851       302.92306      8561.6747      3022.1941      11583.869      64307.92       87120        
     19800   19800          169.13619      292.58252      8585.719       2919.0289      11504.748      64309.03       87120        
     19900   19900          169.98757      301.22367      8543.1928      3005.2397      11548.432      64264.47       87120        
     20000   20000          170.83739      301.21889      8540.268       3005.192       11545.46       64165.681      87120        
     20100   20100          171.67577      295.53465      8577.9608      2948.4816      11526.442      64352.243      87120        
     20200   20200          172.51272      297.90216      8491.2697      2972.1017      11463.371      64024.086      87120        
     20300   20300          173.33819      290.07975      8503.7096      2894.0593      11397.769      63936.235      87120        
     20400   20400          174.17871      297.71735      8524.113       2970.2579      11494.371      64074.576      87120        
     20500   20500          175.01153      303.93354      8503.0457      3032.2754      11535.321      63992.353      87120        
     20600   20600          175.86379      300.33714      8487.2145      2996.3949      11483.609      63916.717      87120        
     20700   20700          176.71161      299.85996      8444.7036      2991.6342      11436.338      63798.39       87120        
     20800   20800          177.5672       296.86603      8457.6631      2961.7645      11419.428      63738.374      87120        
     20900   20900          178.40813      302.52017      8526.9876      3018.1746      11545.162      64070.648      87120        
     21000   21000          179.2455       307.67928      8523.1699      3069.6458      11592.816      64097.693      87120        
     21100   21100          180.07794      305.14233      8472.4656      3044.3353      11516.801      63946.431      87120        
     21200   21200          180.9106       303.86743      8451.3316      3031.6158      11482.947      63873.856      87120        
     21300   21300          181.74578      299.59729      8477.4777      2989.0136      11466.491      63859.569      87120        
     21400   21400          182.5847       299.27781      8456.5173      2985.8262      11442.344      63865.043      87120        
     21500   21500          183.43443      301.16068      8483.4934      3004.6112      11488.105      63953.399      87120        
     21600   21600          184.27194      308.72084      8523.8729      3080.0372      11603.91       64174.222      87120        
     21700   21700          185.09909      308.02731      8526.276       3073.118       11599.394      64214.358      87120        
     21800   21800          185.93793      297.20999      8522.7912      2965.196       11487.987      64044.554      87120        
     21900   21900          186.77519      294.2024       8542.9467      2935.1901      11478.137      64194.146      87120        
     22000   22000          187.61045      303.74991      8479.2553      3030.4433      11509.699      63943.247      87120        
     22100   22100          188.43879      302.32649      8519.3112      3016.2422      11535.553      64138.535      87120        
     22200   22200          189.2692       295.70592      8511.4209      2950.1903      11461.611      64125.492      87120        
     22300   22300          190.09088      296.04819      8470.2287      2953.6051      11423.834      63904.969      87120        
     22400   22400          190.9238       302.18789      8475.0971      3014.8595      11489.957      63970.004      87120        
     22500   22500          191.75635      309.93856      8450.3245      3092.1861      11542.511      63833.743      87120        
     22600   22600          192.59153      301.16873      8489.0678      3004.6916      11493.759      63963.39       87120        
     22700   22700          193.42636      303.61462      8433.9209      3029.0936      11463.015      63752.425      87120        
     22800   22800          194.25219      302.27252      8436.792       3015.7038      11452.496      63745.739      87120        
     22900   22900          195.07066      297.64304      8481.8882      2969.5165      11451.405      63875.848      87120        
     23000   23000          195.90421      300.16223      8467.2725      2994.6499      11461.922      63754.207      87120        
     23100   23100          196.73285      295.54797      8483.3337      2948.6145      11431.948      63944.267      87120        
     23200   23200          197.55176      300.62559      8433.9983      2999.2728      11433.271      63794.069      87120        
     23300   23300          198.37805      302.45353      8452.2627      3017.5097      11469.772      63760.883      87120        
     23400   23400          199.20687      303.3726       8494.3501      3026.679       11521.029      63983.239      87120        
     23500   23500          200.02008      304.18435      8433.6501      3034.7777      11468.428      63703.399      87120        
     23600   23600          200.84381      298.3133       8402.1524      2976.2035      11378.356      63562.415      87120        
     23700   23700          201.67227      293.52004      8478.367       2928.3823      11406.749      63819.555      87120        
     23800   23800          202.48954      309.72384      8420.063       3090.0439      11510.107      63710.187      87120        
     23900   23900          203.32533      305.35188      8453.7279      3046.4258      11500.154      63881.069      87120        
     24000   24000          204.14339      294.77903      8458.1948      2940.9429      11399.138      63859.033      87120        
     24100   24100          204.95443      296.70613      8483.7748      2960.1692      11443.944      63917.565      87120        
     24200   24200          205.78815      301.80017      8501.5009      3010.9912      11512.492      63951.178      87120        
     24300   24300          206.60082      300.05828      8535.8029      2993.6128      11529.416      64143.493      87120        
     24400   24400          207.4123       295.52883      8525.7689      2948.4236      11474.192      64150.221      87120        
     24500   24500          208.23622      291.94547      8474.3762      2912.6732      11387.049      63837.351      87120        
     24600   24600          209.05048      297.35782      8440.6431      2966.671       11407.314      63806.308      87120        
     24700   24700          209.87161      313.89417      8398.2573      3131.6503      11529.908      63708.64       87120        
     24800   24800          210.68374      303.78606      8423.9775      3030.804       11454.782      63726.462      87120        
     24900   24900          211.50804      295.45693      8447.0153      2947.7062      11394.722      63822.317      87120        
     25000   25000          212.32418      305.11613      8401.7876      3044.0739      11445.861      63638.285      87120        
     25100   25100          213.14185      305.20536      8456.1607      3044.964       11501.125      63815.849      87120        
     25200   25200          213.94921      307.58811      8401.1553      3068.7362      11469.892      63709.73       87120        
     25300   25300          214.76707      294.40836      8412.2102      2937.2449      11349.455      63639.108      87120        
     25400   25400          215.57154      297.28088      8420.4001      2965.9033      11386.303      63701.043      87120        
     25500   25500          216.38458      302.61734      8454.3511      3019.144       11473.495      63870.485      87120        
     25600   25600          217.20661      310.25917      8409.5716      3095.3848      11504.956      63707.633      87120        
     25700   25700          218.03008      298.952        8445.5763      2982.5757      11428.152      63804.507      87120        
     25800   25800          218.84791      301.20595      8425.9058      3005.0628      11430.969      63727.604      87120        
     25900   25900          219.67241      300.21488      8449.1917      2995.1752      11444.367      63827.321      87120        
     26000   26000          220.48268      298.71046      8453.8722      2980.166       11434.038      63852.882      87120        
     26100   26100          221.29577      296.85617      8464.7347      2961.666       11426.401      63840.943      87120        
     26200   26200          222.11474      298.96556      8476.1254      2982.711       11458.836      63941.279      87120        
     26300   26300          222.92025      305.47135      8479.0244      3047.6178      11526.642      63984.634      87120        
     26400   26400          223.73641      303.36906      8514.8404      3026.6437      11541.484      64127.811      87120        
     26500   26500          224.5412       296.64611      8486.3476      2959.5703      11445.918      64037.216      87120        
     26600   26600          225.34399      295.27802      8459.9667      2945.9213      11405.888      63876.405      87120        
     26700   26700          226.16318      299.96078      8438.2239      2992.6401      11430.864      63789.336      87120        
     26800   26800          226.98799      301.52146      8447.8686      3008.2106      11456.079      63798.959      87120        
     26900   26900          227.79869      303.54009      8448.6236      3028.35        11476.974      63842.003      87120        
     27000   27000          228.61609      301.30135      8393.1963      3006.0146      11399.211      63599.262      87120        
     27100   27100          229.4088       290.71112      8386.8314      2900.3583      11287.19       63530.617      87120        
     27200   27200          230.21427      294.94921      8419.3776      2942.6408      11362.018      63641.395      87120        
     27300   27300          231.02333      304.72629      8434.7779      3040.1845      11474.962      63789.908      87120        
     27400   27400          231.83056      309.23274      8402.1366      3085.1443      11487.281      63657.186      87120        
     27500   27500          232.64104      298.65596      8431.4589      2979.6222      11411.081      63712.643      87120        
     27600   27600          233.45478      292.07536      8496.3245      2913.969       11410.294      63949.138      87120        
     27700   27700          234.25159      299.01467      8487.9452      2983.2009      11471.146      63918.445      87120        
     27800   27800          235.06374      303.7021       8457.6317      3029.9664      11487.598      63755.204      87120        
     27900   27900          235.88008      301.78003      8476.1566      3010.7903      11486.947      63933.951      87120        
     28000   28000          236.68126      292.83202      8538.9191      2921.5181      11460.437      64101.051      87120        
     28100   28100          237.48801      301.21922      8423.387       3005.1952      11428.582      63672.604      87120        
     28200   28200          238.30287      295.27275      8474.0229      2945.8686      11419.892      63900.834      87120        
     28300   28300          239.10858      301.07844      8429.0002      3003.7907      11432.791      63722.239      87120        
     28400   28400          239.91413      296.5341       8480.3285      2958.4529      11438.781      63917.373      87120        
     28500   28500          240.72906      302.71427      8436.2366      3020.111       11456.348      63790.808      87120        
     28600   28600          241.53331      303.46479      8423.9588      3027.5988      11451.558      63689.778      87120        
     28700   28700          242.33933      296.37073      8456.5569      2956.823       11413.38       63830.917      87120        
     28800   28800          243.13958      298.47217      8388.817       2977.7886      11366.606      63524.859      87120        
     28900   28900          243.94253      292.95275      8411.8151      2922.7226      11334.538      63637.184      87120        
     29000   29000          244.72937      303.13287      8412.6829      3024.2873      11436.97       63665.318      87120        
     29100   29100          245.52182      308.96637      8405.959       3082.4868      11488.446      63613.15       87120        
     29200   29200          246.31642      299.90006      8423.2467      2992.0343      11415.281      63697.451      87120        
     29300   29300          247.10155      301.78293      8388.3655      3010.8192      11399.185      63498.587      87120        
     29400   29400          247.89785      298.11866      8433.5625      2974.2617      11407.824      63663.073      87120        
     29500   29500          248.68205      301.57554      8432.945       3008.7502      11441.695      63696.944      87120        
     29600   29600          249.48514      303.84788      8430.8925      3031.4208      11462.313      63708.82       87120        
     29700   29700          250.28559      298.10116      8405.903       2974.087       11379.99       63618.857      87120        
     29800   29800          251.07389      295.60022      8392.3725      2949.1357      11341.508      63549.362      87120        
     29900   29900          251.87236      303.39967      8386.9849      3026.9491      11413.934      63611.443      87120        
     30000   30000          252.65655      303.82518      8425.7781      3031.1943      11456.972      63681.084      87120        
     30100   30100          253.44943      304.6609       8403.258       3039.5321      11442.79       63589.431      87120        
     30200   30200          254.23339      303.56922      8395.3582      3028.6407      11423.999      63651.469      87120        
     30300   30300          255.02529      304.84612      8365.9632      3041.38        11407.343      63530.321      87120        
     30400   30400          255.82092      295.43524      8424.7143      2947.4898      11372.204      63634.777      87120        
     30500   30500          256.62991      303.9299       8415.6658      3032.2391      11447.905      63645.745      87120        
     30600   30600          257.42779      306.72354      8431.8686      3060.1106      11491.979      63633.118      87120        
     30700   30700          258.23473      298.3413       8429.4618      2976.4829      11405.945      63686.769      87120        
     30800   30800          259.03163      297.26407      8425.161       2965.7356      11390.897      63600.228      87120        
     30900   30900          259.816        297.01066      8452.4786      2963.2074      11415.686      63691.7        87120        
     31000   31000          260.60079      303.41624      8445.4882      3027.1144      11472.603      63759.201      87120        
     31100   31100          261.38728      302.36971      8462.9851      3016.6734      11479.659      63777.313      87120        
     31200   31200          262.16202      296.26912      8426.8571      2955.8093      11382.666      63725.645      87120        
     31300   31300          262.95254      295.74619      8429.6416      2950.592       11380.234      63703.072      87120        
     31400   31400          263.74813      301.45978      8436.2188      3007.5952      11443.814      63687.525      87120        
     31500   31500          264.53149      303.86622      8403.4992      3031.6038      11435.103      63626.826      87120        
     31600   31600          265.30979      298.4795       8410.8022      2977.8617      11388.664      63599.858      87120        
     31700   31700          266.10205      293.1609       8374.5674      2924.7993      11299.367      63425.862      87120        
     31800   31800          266.88356      287.4032       8365.4219      2867.356       11232.778      63348.809      87120        
     31900   31900          267.66489      295.86637      8361.8414      2951.7911      11313.632      63377.256      87120        
     32000   32000          268.45801      297.75562      8400.5448      2970.6397      11371.185      63536.861      87120        
     32100   32100          269.22825      302.41929      8400.089       3017.1681      11417.257      63554.165      87120        
     32200   32200          270.00587      302.35983      8424.4699      3016.5748      11441.045      63650.692      87120        
     32300   32300          270.79329      299.72889      8425.8963      2990.3266      11416.223      63612.14       87120        
     32400   32400          271.58657      293.03332      8419.764       2923.5264      11343.29       63642.64       87120        
     32500   32500          272.38222      296.53252      8436.0349      2958.4371      11394.472      63679.519      87120        
     32600   32600          273.16304      306.28347      8378.3399      3055.7201      11434.06       63470.544      87120        
     32700   32700          273.93848      301.42808      8392.5975      3007.279       11399.877      63540.995      87120        
     32800   32800          274.72361      297.90759      8399.0433      2972.1559      11371.199      63559.101      87120        
     32900   32900          275.50826      300.42798      8405.4406      2997.3012      11402.742      63590.887      87120        
     33000   33000          276.27981      301.40555      8413.7202      3007.0543      11420.774      63643.389      87120        
     33100   33100          277.05556      295.31591      8446.4767      2946.2993      11392.776      63762.142      87120        
     33200   33200          277.83101      301.47979      8411.1771      3007.7949      11418.972      63596.482      87120        
     33300   33300          278.59608      307.36317      8403.7691      3066.4921      11470.261      63612.923      87120        
     33400   33400          279.37961      298.40316      8435.2526      2977.1001      11412.353      63687.497      87120        
     33500   33500          280.1585       298.89649      8359.4541      2982.0219      11341.476      63405.768      87120        
     33600   33600          280.92694      301.6176       8318.4663      3009.1698      11327.636      63261.396      87120        
     33700   33700          281.70312      298.07415      8374.7694      2973.8176      11348.587      63419.599      87120        
     33800   33800          282.48249      305.9147       8348.0166      3052.0409      11400.058      63237.492      87120        
     33900   33900          283.26444      305.37213      8351.7925      3046.6279      11398.42       63346.854      87120        
     34000   34000          284.03124      298.45043      8317.9492      2977.5717      11295.521      63172.826      87120        
     34100   34100          284.8059       297.10819      8356.0011      2964.1804      11320.181      63333.626      87120        
     34200   34200          285.58314      303.59614      8359.304       3028.9093      11388.213      63392.521      87120        
     34300   34300          286.35889      303.71055      8372.2438      3030.0507      11402.294      63522.416      87120        
     34400   34400          287.12549      295.07359      8368.9099      2943.8817      11312.792      63478.033      87120        
     34500   34500          287.9054       301.82549      8346.044       3011.2439      11357.288      63413.329      87120        
     34600   34600          288.68618      302.6951       8375.8515      3019.9198      11395.771      63530.083      87120        
     34700   34700          289.45962      299.50537      8437.1907      2988.0965      11425.287      63722.952      87120        
     34800   34800          290.24424      305.39227      8396.1026      3046.8288      11442.931      63644.17       87120        
     34900   34900          291.03137      298.66518      8433.1178      2979.7142      11412.832      63788.256      87120        
     35000   35000          291.81386      302.46152      8374.7015      3017.5894      11392.291      63538.58       87120        
     35100   35100          292.59187      302.10144      8360.8247      3013.9969      11374.822      63496.009      87120        
     35200   35200          293.35374      295.18282      8436.2756      2944.9715      11381.247      63710.94       87120        
     35300   35300          294.11557      302.11101      8428.465       3014.0924      11442.557      63688.893      87120        
     35400   35400          294.88731      311.27223      8388.386       3105.4919      11493.878      63537.577      87120        
     35500   35500          295.65776      308.77286      8387.4469      3080.5562      11468.003      63494.011      87120        
     35600   35600          296.43554      297.78168      8346.2262      2970.8997      11317.126      63291.765      87120        
     35700   35700          297.20509      294.40871      8324.2558      2937.2483      11261.504      63198.094      87120        
     35800   35800          297.96172      300.53169      8313.119       2998.3359      11311.455      63186.069      87120        
     35900   35900          298.72804      305.03838      8332.5752      3043.2981      11375.873      63278.727      87120        
     36000   36000          299.48712      304.94077      8307.9124      3042.3243      11350.237      63113.8        87120        
     36100   36100          300.24672      298.52576      8312.7608      2978.3232      11291.084      63123.9        87120        
     36200   36200          301.01487      294.11523      8296.2303      2934.3204      11230.551      63045.919      87120        
     36300   36300          301.77074      289.5568       8307.5793      2888.842       11196.421      63046.827      87120        
     36400   36400          302.52937      302.73049      8303.0841      3020.2729      11323.357      63143.584      87120        
     36500   36500          303.29925      299.70094      8408.7892      2990.0477      11398.837      63515.09       87120        
     36600   36600          304.06681      304.8295       8352.2312      3041.2142      11393.445      63307.949      87120        
     36700   36700          304.82413      299.68385      8353.3269      2989.8773      11343.204      63337.418      87120        
     36800   36800          305.59311      300.81708      8351.868       3001.1832      11353.051      63358.588      87120        
     36900   36900          306.36913      297.02337      8389.8019      2963.3342      11353.136      63475.74       87120        
     37000   37000          307.13164      304.26835      8387.9184      3035.6157      11423.534      63513.965      87120        
     37100   37100          307.8834       307.32738      8429.049       3066.135       11495.184      63643.533      87120        
     37200   37200          308.63588      301.80886      8415.9523      3011.078       11427.03       63622.983      87120        
     37300   37300          309.40459      300.73491      8372.5351      3000.3634      11372.899      63411.065      87120        
     37400   37400          310.17181      298.5641       8405.6768      2978.7057      11384.383      63614.79       87120        
     37500   37500          310.92866      303.237        8399.832       3025.3262      11425.158      63569.796      87120        
     37600   37600          311.68781      304.83679      8374.4066      3041.2869      11415.694      63381.241      87120        
     37700   37700          312.45371      295.46512      8315.9555      2947.7879      11263.743      63161.036      87120        
     37800   37800          313.20347      295.77176      8276.3111      2950.8472      11227.158      62958.098      87120        
     37900   37900          313.96499      302.78879      8246.28        3020.8545      11267.135      62834.834      87120        
     38000   38000          314.71553      300.36151      8292.3834      2996.6381      11289.022      63006.701      87120        
     38100   38100          315.47673      302.04764      8271.3883      3013.4602      11284.849      62925.35       87120        
     38200   38200          316.23426      299.75078      8233.916       2990.5449      11224.461      62865.942      87120        
     38300   38300          316.99478      292.74641      8280.3868      2920.664       11201.051      62986.535      87120        
     38400   38400          317.75895      303.41051      8280.8853      3027.0573      11307.943      63067.603      87120        
     38500   38500          318.51486      308.29904      8336.4936      3075.829       11412.323      63302.754      87120        
     38600   38600          319.27741      308.3075       8326.8689      3075.9134      11402.782      63266.645      87120        
     38700   38700          320.03195      300.63806      8369.9931      2999.3971      11369.39       63474.791      87120        
     38800   38800          320.79633      300.36591      8396.5417      2996.682       11393.224      63495.167      87120        
     38900   38900          321.55247      299.03616      8407.9024      2983.4154      11391.318      63624.744      87120        
     39000   39000          322.31499      292.22173      8404.8768      2915.4294      11320.306      63494.076      87120        
     39100   39100          323.07773      291.006        8369.4149      2903.3003      11272.715      63368.85       87120        
     39200   39200          323.82472      301.29994      8356.2308      3006.0006      11362.231      63375.477      87120        
     39300   39300          324.5862       309.67706      8313.383       3089.5772      11402.96       63137.906      87120        
     39400   39400          325.34006      300.14569      8344.0486      2994.4849      11338.533      63272.787      87120        
     39500   39500          326.08907      294.69206      8308.2959      2940.0753      11248.371      63136.793      87120        
     39600   39600          326.84524      298.78102      8273.9496      2980.8699      11254.819      63011.021      87120        
     39700   39700          327.59973      297.32643      8310.2031      2966.3578      11276.561      63154.827      87120        
     39800   39800          328.34986      294.96022      8370.0367      2942.7507      11312.787      63317.452      87120        
     39900   39900          329.11276      305.23363      8337.5395      3045.2461      11382.786      63242.134      87120        
     40000   40000          329.86469      298.89923      8343.8169      2982.0493      11325.866      63226.095      87120        
     40100   40100          330.60881      298.82282      8314.674       2981.2869      11295.961      63134.098      87120        
     40200   40200          331.35364      299.35542      8335.1723      2986.6005      11321.773      63235.886      87120        
     40300   40300          332.09072      297.37007      8385.8606      2966.7932      11352.654      63348.713      87120        
     40400   40400          332.84295      302.95946      8327.4748      3022.5573      11350.032      63161.334      87120        
     40500   40500          333.59067      295.28244      8325.1464      2945.9654      11271.112      63139.614      87120        
     40600   40600          334.36217      296.7461       8280.199       2960.568       11240.767      63032.317      87120        
     40700   40700          335.11399      299.76795      8316.609       2990.7163      11307.325      63207.785      87120        
     40800   40800          335.86381      304.65594      8366.4511      3039.4826      11405.934      63301.568      87120        
     40900   40900          336.61475      304.4381       8362.0499      3037.3093      11399.359      63366.114      87120        
     41000   41000          337.3533       300.10073      8334.9839      2994.0363      11329.02       63172.117      87120        
     41100   41100          338.09653      297.47789      8333.3564      2967.8688      11301.225      63208.376      87120        
     41200   41200          338.84088      303.8912       8335.9719      3031.853       11367.825      63270.061      87120        
     41300   41300          339.58247      310.69615      8358.0493      3099.7444      11457.794      63266.187      87120        
     41400   41400          340.31876      302.95468      8332.3813      3022.5096      11354.891      63136.957      87120        
     41500   41500          341.06885      302.46733      8274.8299      3017.6473      11292.477      62982.152      87120        
     41600   41600          341.82223      300.1722       8264.1776      2994.7493      11258.927      62911.918      87120        
     41700   41700          342.57917      297.49343      8260.9512      2968.0239      11228.975      62881.379      87120        
     41800   41800          343.33827      302.42199      8226.4101      3017.195       11243.605      62727.121      87120        
     41900   41900          344.08065      303.05308      8300.3487      3023.4912      11323.84       63026.281      87120        
     42000   42000          344.81604      307.05826      8264.8316      3063.4501      11328.282      62864.198      87120        
     42100   42100          345.55615      297.55034      8263.7093      2968.5916      11232.301      62851.144      87120        
     42200   42200          346.29479      295.70997      8261.8526      2950.2308      11212.083      62828.191      87120        
     42300   42300          347.03415      299.63775      8281.7084      2989.4173      11271.126      62875.301      87120        
     42400   42400          347.78808      302.48001      8278.8514      3017.7738      11296.625      62934.166      87120        
     42500   42500          348.52944      294.17268      8307.4559      2934.8935      11242.349      62995.341      87120        
     42600   42600          349.26977      298.20665      8233.8243      2975.1396      11208.964      62723.152      87120        
     42700   42700          350.00783      301.94971      8251.5093      3012.4832      11263.993      62838.382      87120        
     42800   42800          350.74627      309.20324      8273.7312      3084.85        11358.581      62905.877      87120        
     42900   42900          351.48495      303.59897      8357.1755      3028.9375      11386.113      63270.553      87120        
     43000   43000          352.2114       296.42616      8336.556       2957.376       11293.932      63144.263      87120        
     43100   43100          352.94457      293.21875      8332.8172      2925.3764      11258.194      63155.336      87120        
     43200   43200          353.67294      299.81975      8325.8858      2991.233       11317.119      63201.304      87120        
     43300   43300          354.42164      303.06719      8386.1225      3023.632       11409.754      63273.508      87120        
     43400   43400          355.15959      306.54923      8315.6641      3058.3715      11374.036      63108.839      87120        
     43500   43500          355.89989      300.76008      8314.374       3000.6145      11314.989      63007.725      87120        
     43600   43600          356.63097      296.4483       8306.7856      2957.5968      11264.382      62944.9        87120        
     43700   43700          357.37275      296.17687      8309.018       2954.8889      11263.907      62957.721      87120        
     43800   43800          358.11591      308.04694      8278.548       3073.3138      11351.862      62792.328      87120        
     43900   43900          358.84267      301.33968      8304.7323      3006.397       11311.129      62950.945      87120        
     44000   44000          359.58591      299.2237       8291.6123      2985.2864      11276.899      62899.517      87120        
     44100   44100          360.31231      301.92265      8249.0412      3012.2132      11261.254      62798.52       87120        
     44200   44200          361.05384      299.69         8247.7372      2989.9386      11237.676      62848.873      87120        
     44300   44300          361.78553      299.18201      8256.231       2984.8705      11241.102      62687.323      87120        
     44400   44400          362.52535      298.24292      8332.9692      2975.5014      11308.471      63089.684      87120        
     44500   44500          363.26173      310.69747      8269.4699      3099.7576      11369.227      62909.249      87120        
     44600   44600          364.00128      298.893        8323.6883      2981.9871      11305.675      62979.956      87120        
     44700   44700          364.73015      299.35411      8336.7892      2986.5875      11323.377      63289.949      87120        
     44800   44800          365.47323      302.03085      8323.5997      3013.2927      11336.892      63178.533      87120        
     44900   44900          366.21034      295.75926      8380.1372      2950.7225      11330.86       63356.784      87120        
     45000   45000          366.94932      300.47625      8397.1002      2997.7828      11394.883      63484.233      87120        
     45100   45100          367.68545      310.97435      8350.9116      3102.52        11453.432      63266.179      87120        
     45200   45200          368.41668      304.73841      8334.023       3040.3054      11374.328      63287.301      87120        
     45300   45300          369.14959      296.91972      8366.1442      2962.3001      11328.444      63304.748      87120        
     45400   45400          369.86903      301.25007      8305.7489      3005.5031      11311.252      63109.296      87120        
     45500   45500          370.59885      300.60669      8274.1164      2999.0842      11273.201      63002.279      87120        
     45600   45600          371.32908      290.51452      8278.1702      2898.3969      11176.567      62933.463      87120        
     45700   45700          372.05854      292.34594      8242.2791      2916.6685      11158.948      62764.38       87120        
     45800   45800          372.79213      299.79606      8254.5629      2990.9967      11245.56       62846.142      87120        
     45900   45900          373.51511      302.3065       8251.7229      3016.0428      11267.766      62819.518      87120        
     46000   46000          374.24466      300.96797      8238.3299      3002.6886      11241.019      62790.482      87120        
     46100   46100          374.96703      294.54052      8285.2404      2938.5634      11223.804      62934.824      87120        
     46200   46200          375.68732      303.5543       8273.1032      3028.4918      11301.595      62924.91       87120        
     46300   46300          376.41005      307.71433      8320.4806      3069.9955      11390.476      63127.682      87120        
     46400   46400          377.12442      303.04303      8291.7173      3023.391       11315.108      62992.764      87120        
     46500   46500          377.8477       299.94667      8292.8958      2992.4993      11285.395      63031.91       87120        
     46600   46600          378.57653      294.64222      8357.2947      2939.578       11296.873      63181.761      87120        
     46700   46700          379.28974      303.24594      8285.8577      3025.4154      11311.273      62980.308      87120        
     46800   46800          380.00163      297.43161      8288.967       2967.4071      11256.374      62993.241      87120        
     46900   46900          380.72658      292.68271      8312.0324      2920.0285      11232.061      63060.21       87120        
     47000   47000          381.4506       303.753        8278.9035      3030.4742      11309.378      62945.858      87120        
     47100   47100          382.16116      309.10369      8298.4955      3083.8568      11382.352      63041.342      87120        
     47200   47200          382.88525      308.46204      8344.3083      3077.4552      11421.763      63173.781      87120        
     47300   47300          383.6033       300.151        8322.9433      2994.5379      11317.481      63099.755      87120        
     47400   47400          384.31203      298.58229      8303.5715      2978.8872      11282.459      63076.23       87120        
     47500   47500          385.03146      297.34336      8326.5947      2966.5267      11293.121      63216.378      87120        
     47600   47600          385.74125      305.03298      8271.3067      3043.2443      11314.551      62999.747      87120        
     47700   47700          386.46132      301.51824      8269.1385      3008.1785      11277.317      62934.01       87120        
     47800   47800          387.16819      295.02847      8268.0592      2943.4315      11211.491      62941.084      87120        
     47900   47900          387.88758      299.26098      8244.7012      2985.6583      11230.36       62763.841      87120        
     48000   48000          388.60475      305.59318      8267.3511      3048.8332      11316.184      62933.122      87120        
     48100   48100          389.31572      314.11543      8217.8583      3133.8577      11351.716      62781.12       87120        
     48200   48200          390.01685      303.86691      8250.337       3031.6107      11281.948      62812.985      87120        
     48300   48300          390.73419      302.95212      8235.3774      3022.484       11257.861      62839.882      87120        
     48400   48400          391.44743      296.42888      8277.6729      2957.4031      11235.076      62910.12       87120        
     48500   48500          392.16936      299.07745      8205.9809      2983.8273      11189.808      62751.669      87120        
     48600   48600          392.88183      294.26715      8243.6393      2935.836       11179.475      62853.389      87120        
     48700   48700          393.59928      307.60226      8246.0916      3068.8774      11314.969      62781.521      87120        
     48800   48800          394.3118       304.40083      8311.348       3036.9374      11348.285      63061.474      87120        
     48900   48900          395.04089      303.79449      8286.9464      3030.8881      11317.835      62971.759      87120        
     49000   49000          395.75469      297.81768      8311.622       2971.2588      11282.881      63076.999      87120        
     49100   49100          396.45514      298.48187      8317.8097      2977.8853      11295.695      63089.769      87120        
     49200   49200          397.1664       297.23391      8335.1766      2965.4348      11300.611      63191.485      87120        
     49300   49300          397.88003      301.3958       8289.8024      3006.9569      11296.759      63045.764      87120        
     49400   49400          398.59579      302.73584      8294.4215      3020.3262      11314.748      63049.647      87120        
     49500   49500          399.30526      311.47459      8245.0547      3107.5107      11352.565      62830.372      87120        
     49600   49600          400.01991      303.7543       8222.7337      3030.4872      11253.221      62715.118      87120        
     49700   49700          400.72663      293.58372      8259.4196      2929.0176      11188.437      62818.985      87120        
     49800   49800          401.42387      299.85447      8235.2278      2991.5794      11226.807      62717.074      87120        
     49900   49900          402.12977      308.11211      8227.5253      3073.964       11301.489      62747.688      87120        
     50000   50000          402.82521      303.54107      8265.1493      3028.3598      11293.509      62878.677      87120        
     50100   50100          403.51761      296.7175       8243.414       2960.2826      11203.697      62769.39       87120        
     50200   50200          404.21979      294.03728      8290.8341      2933.5427      11224.377      62958.768      87120        
     50300   50300          404.91226      303.99349      8264.5513      3032.8735      11297.425      62932.317      87120        
     50400   50400          405.62121      308.10055      8240.1287      3073.8487      11313.977      62884.876      87120        
     50500   50500          406.31721      297.46035      8295.628       2967.6939      11263.322      63047.652      87120        
     50600   50600          407.02697      300.86841      8285.2371      3001.6953      11286.932      63054.249      87120        
     50700   50700          407.72642      300.83964      8268.3315      3001.4082      11269.74       62930.895      87120        
     50800   50800          408.43989      295.66922      8275.1406      2949.8241      11224.965      62880.175      87120        
     50900   50900          409.14154      288.46234      8295.2766      2877.9228      11173.199      62992.627      87120        
     51000   51000          409.84874      296.62114      8289.1157      2959.3213      11248.437      62924.659      87120        
     51100   51100          410.55153      305.99437      8255.3326      3052.8358      11308.168      62848.086      87120        
     51200   51200          411.2543       304.3717       8211.2328      3036.6468      11247.88       62724.023      87120        
     51300   51300          411.9554       295.12983      8229.7381      2944.4428      11174.181      62687.222      87120        
     51400   51400          412.64497      297.61759      8228.6103      2969.2626      11197.873      62721.362      87120        
     51500   51500          413.34895      300.06897      8254.8417      2993.7195      11248.561      62686.217      87120        
     51600   51600          414.05261      305.66362      8253.0463      3049.536       11302.582      62785.504      87120        
     51700   51700          414.76356      296.15002      8289.8044      2954.621       11244.425      62989.584      87120        
     51800   51800          415.46368      284.97133      8292.1726      2843.0938      11135.266      62836.89       87120        
     51900   51900          416.17142      294.58093      8296.5919      2938.9666      11235.559      62920.822      87120        
     52000   52000          416.87498      301.81547      8291.8416      3011.1439      11302.986      62884.553      87120        
     52100   52100          417.57548      305.66812      8276.7328      3049.5809      11326.314      62804.782      87120        
     52200   52200          418.27529      298.94238      8268.2807      2982.4797      11250.76       62870.358      87120        
     52300   52300          418.97809      297.39569      8237.1573      2967.0488      11204.206      62699.007      87120        
     52400   52400          419.67996      294.29807      8296.9872      2936.1445      11233.132      62906.792      87120        
     52500   52500          420.38635      301.36801      8296.4652      3006.6797      11303.145      63001.622      87120        
     52600   52600          421.092        307.17987      8269.5852      3064.6633      11334.248      62914.396      87120        
     52700   52700          421.79927      302.24728      8279.7977      3015.452       11295.25       62957.741      87120        
     52800   52800          422.50667      297.85063      8269.5488      2971.5876      11241.136      62876.627      87120        
     52900   52900          423.21302      296.41544      8258.0915      2957.269       11215.36       62896.709      87120        
     53000   53000          423.90957      302.09495      8253.7094      3013.9322      11267.642      62889.86       87120        
     53100   53100          424.6152       309.7736       8288.6799      3090.5404      11379.22       63022.981      87120        
     53200   53200          425.3189       304.78173      8288.5273      3040.7376      11329.265      63001.325      87120        
     53300   53300          426.01986      298.01364      8252.1663      2973.2139      11225.38       62755.626      87120        
     53400   53400          426.7181       298.49565      8246.3359      2978.0228      11224.359      62785.991      87120        
     53500   53500          427.4159       304.07102      8242.7368      3033.647       11276.384      62827.03       87120        
     53600   53600          428.11476      307.08764      8280.0734      3063.7431      11343.816      62899.607      87120        
     53700   53700          428.80945      304.94058      8225.1541      3042.3224      11267.476      62757.122      87120        
     53800   53800          429.51473      295.14304      8247.2804      2944.5746      11191.855      62754.587      87120        
     53900   53900          430.21786      301.07534      8233.6001      3003.7598      11237.36       62737.982      87120        
     54000   54000          430.91928      298.73521      8291.5347      2980.4128      11271.948      62994.795      87120        
     54100   54100          431.61881      299.7834       8315.2338      2990.8704      11306.104      63047.698      87120        
     54200   54200          432.32641      302.02081      8299.4207      3013.1925      11312.613      63041.747      87120        
     54300   54300          433.03381      294.38768      8328.9441      2937.0385      11265.983      63115.406      87120        
     54400   54400          433.74439      298.65122      8335.9913      2979.5749      11315.566      63190.239      87120        
     54500   54500          434.45213      306.65475      8336.0372      3059.4243      11395.462      63194.995      87120        
     54600   54600          435.15931      302.52382      8314.5641      3018.2109      11332.775      63090.777      87120        
     54700   54700          435.85052      291.23894      8307.4728      2905.6243      11213.097      63000.27       87120        
     54800   54800          436.54765      300.88581      8260.9272      3001.8689      11262.796      62824.736      87120        
     54900   54900          437.24448      306.05537      8250.4222      3053.4444      11303.867      62873.802      87120        
     55000   55000          437.94224      296.10873      8306.7647      2954.209       11260.974      62988.069      87120        
     55100   55100          438.63725      294.59558      8258.6889      2939.1128      11197.802      62739.634      87120        
     55200   55200          439.33199      292.40291      8266.4911      2917.237       11183.728      62856.698      87120        
     55300   55300          440.02754      303.79705      8279.2084      3030.9137      11310.122      62889.284      87120        
     55400   55400          440.72181      306.79551      8289.6928      3060.8286      11350.521      62965.578      87120        
     55500   55500          441.42024      299.78072      8325.1398      2990.8436      11315.983      63136.795      87120        
     55600   55600          442.11913      300.63678      8278.0581      2999.3844      11277.442      62910.878      87120        
     55700   55700          442.81336      297.5152       8252.8467      2968.2411      11221.088      62840.138      87120        
     55800   55800          443.49777      287.98872      8287.0937      2873.1976      11160.291      62904.513      87120        
     55900   55900          444.19401      295.19272      8289.3482      2945.0702      11234.418      62959.506      87120        
     56000   56000          444.90192      303.40484      8294.1935      3027.0007      11321.194      63024.916      87120        
     56100   56100          445.61841      299.50939      8278.3182      2988.1367      11266.455      62954.467      87120        
     56200   56200          446.32041      296.31175      8246.8028      2956.2345      11203.037      62805.927      87120        
     56300   56300          447.02578      300.35551      8239.5621      2996.5782      11236.14       62764.313      87120        
     56400   56400          447.72413      302.96631      8252.5293      3022.6256      11275.155      62831.527      87120        
     56500   56500          448.41739      300.35176      8260.7856      2996.5408      11257.326      62983.433      87120        
     56600   56600          449.1088       298.77068      8257.8036      2980.7668      11238.57       62889.575      87120        
     56700   56700          449.80137      300.00049      8242.3733      2993.0363      11235.41       62820.673      87120        
     56800   56800          450.49806      297.37671      8283.1248      2966.8594      11249.984      62944.039      87120        
     56900   56900          451.19706      301.57677      8274.7754      3008.7625      11283.538      62874.395      87120        
     57000   57000          451.89228      300.20131      8253.6621      2995.0398      11248.702      62872.235      87120        
     57100   57100          452.58727      298.0334       8254.1922      2973.4111      11227.603      62839.004      87120        
     57200   57200          453.28979      297.80672      8261.1084      2971.1495      11232.258      62747.931      87120        
     57300   57300          453.98289      300.19484      8281.6337      2994.9752      11276.609      62990.923      87120        
     57400   57400          454.68906      304.32107      8320.8024      3036.1417      11356.944      63096.472      87120        
     57500   57500          455.38104      307.23318      8263.8649      3065.1952      11329.06       62859.914      87120        
     57600   57600          456.0832       294.28819      8273.9858      2936.0459      11210.032      62870.583      87120        
     57700   57700          456.77131      297.7142       8252.8521      2970.2265      11223.079      62777.977      87120        
     57800   57800          457.46178      302.6172       8268.658       3019.1426      11287.801      62874.87       87120        
     57900   57900          458.15646      307.82656      8230.7912      3071.1151      11301.906      62749.554      87120        
     58000   58000          458.85698      297.17731      8230.159       2964.87        11195.029      62653.076      87120        
     58100   58100          459.53647      290.01267      8274.6731      2893.3901      11168.063      62816.791      87120        
     58200   58200          460.22585      298.66277      8270.5183      2979.6901      11250.208      62872.579      87120        
     58300   58300          460.92041      301.31333      8304.3186      3006.1342      11310.453      63003.878      87120        
     58400   58400          461.61016      309.83811      8212.6832      3091.1839      11303.867      62684.261      87120        
     58500   58500          462.3089       299.17134      8218.9298      2984.764       11203.694      62734.028      87120        
     58600   58600          463.00724      295.86204      8266.258       2951.7479      11218.006      62846.358      87120        
     58700   58700          463.70085      299.59151      8268.0982      2988.956       11257.054      62843.478      87120        
     58800   58800          464.402        304.33447      8259.4227      3036.2754      11295.698      62881.707      87120        
     58900   58900          465.09196      297.38877      8279.6888      2966.9797      11246.668      62984.446      87120        
     59000   59000          465.78311      297.76007      8213.2085      2970.6841      11183.893      62783.388      87120        
     59100   59100          466.46888      296.05545      8275.6744      2953.6775      11229.352      62921.104      87120        
     59200   59200          467.15278      305.48083      8217.9452      3047.7124      11265.658      62689.243      87120        
     59300   59300          467.84146      295.88306      8296.1978      2951.9576      11248.155      62963.101      87120        
     59400   59400          468.53018      296.75762      8276.333       2960.6828      11237.016      62887.987      87120        
     59500   59500          469.21931      303.80968      8241.8394      3031.0397      11272.879      62789.852      87120        
     59600   59600          469.90883      304.28206      8228.5315      3035.7525      11264.284      62766.404      87120        
     59700   59700          470.60168      299.42741      8214.3775      2987.3187      11201.696      62702.836      87120        
     59800   59800          471.27502      294.71011      8217.1024      2940.2553      11157.358      62686.491      87120        
     59900   59900          471.95713      296.25031      8251.2386      2955.6216      11206.86       62821.156      87120        
     60000   60000          472.64061      307.36998      8219.0524      3066.5599      11285.612      62752.997      87120        
     60100   60100          473.33336      300.80939      8248.0722      3001.1064      11249.179      62752.444      87120        
     60200   60200          474.01424      297.8869       8240.3897      2971.9495      11212.339      62772.266      87120        
     60300   60300          474.69455      297.86749      8233.8649      2971.7559      11205.621      62790.55       87120        
     60400   60400          475.38043      301.67508      8233.0559      3009.7432      11242.799      62674.109      87120        
     60500   60500          476.0584       309.65247      8237.5873      3089.3318      11326.919      62814.547      87120        
     60600   60600          476.74672      301.45085      8241.7744      3007.5062      11249.281      62708.689      87120        
     60700   60700          477.42422      296.63734      8232.9445      2959.4829      11192.427      62677.078      87120        
     60800   60800          478.11266      298.13795      8204.5432      2974.4541      11178.997      62668.914      87120        
     60900   60900          478.80018      297.70383      8201.9243      2970.123       11172.047      62569.887      87120        
     61000   61000          479.48485      295.63937      8179.3803      2949.5263      11128.907      62571.678      87120        
     61100   61100          480.16752      296.3776       8187.6075      2956.8915      11144.499      62575.106      87120        
     61200   61200          480.85069      304.17599      8177.9665      3034.6943      11212.661      62520.995      87120        
     61300   61300          481.52266      304.95595      8197.1268      3042.4758      11239.603      62659.796      87120        
     61400   61400          482.19973      300.35567      8191.2816      2996.5798      11187.861      62582.76       87120        
     61500   61500          482.87251      295.29501      8198.9904      2946.0908      11145.081      62591.131      87120        
     61600   61600          483.54927      295.33866      8271.7673      2946.5262      11218.294      62934.216      87120        
     61700   61700          484.21636      302.999        8263.4021      3022.9517      11286.354      62918.623      87120        
     61800   61800          484.89401      305.80539      8225.1289      3050.9504      11276.079      62803.356      87120        
     61900   61900          485.56399      303.06494      8198.2318      3023.6095      11221.841      62651.968      87120        
     62000   62000          486.23527      295.78817      8231.4614      2951.0109      11182.472      62640.201      87120        
     62100   62100          486.90281      298.59537      8215.2185      2979.0177      11194.236      62666.77       87120        
     62200   62200          487.57094      307.79965      8189.774       3070.8467      11260.621      62606.369      87120        
     62300   62300          488.23752      311.63717      8207.7373      3109.1328      11316.87       62636.471      87120        
     62400   62400          488.90184      300.50353      8156.8766      2998.055       11154.932      62424.259      87120        
     62500   62500          489.56473      296.37976      8163.0602      2956.9131      11119.973      62345.526      87120        
     62600   62600          490.2289       301.22612      8164.8954      3005.2641      11170.16       62396.492      87120        
     62700   62700          490.89808      303.93335      8195.4066      3032.2735      11227.68       62546.225      87120        
     62800   62800          491.55868      301.3863       8212.6215      3006.8621      11219.484      62576.36       87120        
     62900   62900          492.22513      296.68915      8167.0487      2959.9997      11127.048      62399.55       87120        
     63000   63000          492.89974      290.4775       8210.3177      2898.0275      11108.345      62531.845      87120        
     63100   63100          493.55173      300.37187      8211.0619      2996.7415      11207.803      62623.97       87120        
     63200   63200          494.21629      298.74937      8282.5546      2980.5541      11263.109      62892.577      87120        
     63300   63300          494.88306      303.55412      8210.8946      3028.49        11239.385      62674.851      87120        
     63400   63400          495.54185      297.96804      8191.6311      2972.759       11164.39       62571.174      87120        
     63500   63500          496.20995      299.59371      8181.9163      2988.9779      11170.894      62542.124      87120        
     63600   63600          496.88034      297.63406      8242.3009      2969.4269      11211.728      62821.975      87120        
     63700   63700          497.54725      300.562        8234.9761      2998.6383      11233.614      62697.633      87120        
     63800   63800          498.22169      300.28953      8231.4174      2995.9199      11227.337      62684.358      87120        
     63900   63900          498.884        297.29577      8230.4568      2966.0518      11196.509      62708.434      87120        
     64000   64000          499.54854      305.41289      8187.7486      3047.0345      11234.783      62516.351      87120        
     64100   64100          500.19851      304.39611      8179.5619      3036.8904      11216.452      62514.049      87120        
     64200   64200          500.85591      297.65691      8137.9097      2969.6549      11107.565      62333.926      87120        
     64300   64300          501.50548      296.03865      8113.9166      2953.5099      11067.426      62137.418      87120        
     64400   64400          502.16501      298.90738      8125.7905      2982.1306      11107.921      62232.382      87120        
     64500   64500          502.82206      304.23615      8154.0173      3035.2945      11189.312      62355.535      87120        
     64600   64600          503.48469      313.14508      8126.1247      3124.1769      11250.302      62276.9        87120        
     64700   64700          504.14672      302.376        8150.1509      3016.7362      11166.887      62401.965      87120        
     64800   64800          504.81373      294.8892       8181.0949      2942.0421      11123.137      62471.027      87120        
     64900   64900          505.47472      300.69188      8173.8531      2999.9341      11173.787      62469.764      87120        
     65000   65000          506.1304       304.25071      8199.7409      3035.4398      11235.181      62579.669      87120        
     65100   65100          506.77784      303.01873      8175.5468      3023.1485      11198.695      62535.158      87120        
     65200   65200          507.43425      293.31741      8209.6395      2926.3607      11136          62586.263      87120        
     65300   65300          508.09199      298.03192      8187.8586      2973.3963      11161.255      62479.205      87120        
     65400   65400          508.74651      303.13733      8161.6516      3024.3318      11185.983      62396.76       87120        
     65500   65500          509.40263      301.86289      8137.7603      3011.617       11149.377      62291.857      87120        
     65600   65600          510.04606      296.51431      8154.7938      2958.2554      11113.049      62355.576      87120        
     65700   65700          510.69901      302.35034      8113.6035      3016.4802      11130.084      62142.129      87120        
     65800   65800          511.34332      306.17896      8181.8563      3054.6774      11236.534      62446.044      87120        
     65900   65900          511.9983       302.17253      8161.5861      3014.7062      11176.292      62420.76       87120        
     66000   66000          512.64091      297.154        8129.7021      2964.6375      11094.34       62217.488      87120        
     66100   66100          513.28814      297.3582       8133.412       2966.6747      11100.087      62242.363      87120        
     66200   66200          513.94447      298.9265       8180.5161      2982.3213      11162.837      62373.454      87120        
     66300   66300          514.59698      306.64876      8125.999       3059.3645      11185.363      62174.947      87120        
     66400   66400          515.24797      292.28525      8135.6165      2916.0631      11051.68       62206.465      87120        
     66500   66500          515.89929      296.09731      8134.2482      2954.0952      11088.343      62201.169      87120        
     66600   66600          516.54911      300.60583      8155.9653      2999.0756      11155.041      62296.722      87120        
     66700   66700          517.19747      305.21659      8158.4193      3045.0761      11203.495      62397.124      87120        
     66800   66800          517.84505      298.00483      8191.3721      2973.126       11164.498      62468.781      87120        
     66900   66900          518.49384      295.63774      8156.2933      2949.5101      11105.803      62375.34       87120        
     67000   67000          519.13347      297.70898      8181.0782      2970.1743      11151.253      62479.933      87120        
     67100   67100          519.76962      300.04158      8193.4578      2993.4462      11186.904      62494.557      87120        
     67200   67200          520.41494      303.54637      8150.2221      3028.4127      11178.635      62325.664      87120        
     67300   67300          521.06242      297.56199      8181.9589      2968.7079      11150.667      62455.135      87120        
     67400   67400          521.69897      290.50656      8152.2476      2898.3175      11050.565      62320.492      87120        
     67500   67500          522.34593      290.59664      8131.4594      2899.2162      11030.676      62194.76       87120        
     67600   67600          522.99281      301.37407      8112.541       3006.7401      11119.281      62108.082      87120        
     67700   67700          523.63956      299.57596      8149.4284      2988.8008      11138.229      62254.145      87120        
     67800   67800          524.27658      302.48835      8120.1977      3017.8571      11138.055      62177.317      87120        
     67900   67900          524.9229       300.29839      8117.3446      2996.0084      11113.353      62184.634      87120        
     68000   68000          525.5679       296.47985      8094.4499      2957.9116      11052.362      62085.044      87120        
     68100   68100          526.20657      299.10658      8127.4514      2984.1179      11111.569      62192.087      87120        
     68200   68200          526.84622      308.59141      8111.2752      3078.7459      11190.021      62150.844      87120        
     68300   68300          527.49401      302.55596      8113.6821      3018.5316      11132.214      62148.102      87120        
     68400   68400          528.13487      296.4761       8142.0649      2957.8742      11099.939      62293.911      87120        
     68500   68500          528.77609      301.77037      8109.5623      3010.6939      11120.256      62172.938      87120        
     68600   68600          529.41709      301.03988      8143.1525      3003.406       11146.559      62287.078      87120        
     68700   68700          530.04671      300.55774      8129.2709      2998.5958      11127.867      62246.916      87120        
     68800   68800          530.68908      292.5199       8161.3019      2918.4041      11079.706      62365.448      87120        
     68900   68900          531.32257      304.18101      8107.3914      3034.7443      11142.136      62199.754      87120        
     69000   69000          531.96102      307.23968      8112.5477      3065.26        11177.808      62189.927      87120        
     69100   69100          532.59441      296.83353      8117.0159      2961.4402      11078.456      62172.175      87120        
     69200   69200          533.22581      293.78175      8108.6471      2930.9933      11039.64       62132.077      87120        
     69300   69300          533.86178      294.80465      8127.7982      2941.1986      11068.997      62142.396      87120        
     69400   69400          534.48787      301.48179      8139.816       3007.8149      11147.631      62303.982      87120        
     69500   69500          535.12421      301.89827      8133.4953      3011.97        11145.465      62243.859      87120        
     69600   69600          535.75981      299.86667      8091.3254      2991.7012      11083.027      62011.363      87120        
     69700   69700          536.39402      288.58431      8114.8303      2879.1396      10993.97       62106.25       87120        
     69800   69800          537.02865      295.69328      8133.2024      2950.0642      11083.267      62184.679      87120        
     69900   69900          537.66194      305.33322      8101.0692      3046.2397      11147.309      62008.389      87120        
     70000   70000          538.29232      302.94872      8089.0873      3022.4501      11111.537      62030.726      87120        
     70100   70100          538.92019      295.39247      8115.5168      2947.0631      11062.58       62120.08       87120        
     70200   70200          539.54639      299.02137      8063.7114      2983.2678      11046.979      61914.448      87120        
     70300   70300          540.16634      296.59791      8100.0796      2959.0895      11059.169      62035.475      87120        
     70400   70400          540.79781      305.47912      8116.4794      3047.6953      11164.175      62129.049      87120        
     70500   70500          541.42881      304.7298       8104.4758      3040.2195      11144.695      62083.08       87120        
     70600   70600          542.07011      303.40624      8049.2139      3027.0146      11076.229      61870.129      87120        
     70700   70700          542.70533      298.47446      8117.7059      2977.8114      11095.517      62169.867      87120        
     70800   70800          543.33793      303.27335      8089.1813      3025.6888      11114.87       62072.111      87120        
     70900   70900          543.97721      294.30596      8189.1494      2936.2233      11125.373      62492.137      87120        
     71000   71000          544.60711      298.91138      8127.4775      2982.1704      11109.648      62237.249      87120        
     71100   71100          545.23184      296.21861      8128.4098      2955.3053      11083.715      62201.481      87120        
     71200   71200          545.85731      293.47961      8126.779       2927.9789      11054.758      62169.08       87120        
     71300   71300          546.47519      303.5195       8119.0942      3028.1446      11147.239      62194.523      87120        
     71400   71400          547.10564      305.97929      8117.5835      3052.6854      11170.269      62198.702      87120        
     71500   71500          547.73242      297.9408       8144.4772      2972.4872      11116.964      62256.27       87120        
     71600   71600          548.36115      295.64305      8150.7186      2949.563       11100.282      62275.716      87120        
     71700   71700          548.98662      298.66151      8115.942       2979.6775      11095.62       62140.302      87120        
     71800   71800          549.61043      301.68489      8100.4033      3009.8412      11110.244      62122.721      87120        
     71900   71900          550.23368      300.45495      8104.8209      2997.5703      11102.391      62040.87       87120        
     72000   72000          550.85949      295.77784      8143.46        2950.9079      11094.368      62192.383      87120        
     72100   72100          551.48293      303.12086      8089.0258      3024.1674      11113.193      61979.355      87120        
     72200   72200          552.11395      306.30729      8124.565       3055.9578      11180.523      62172.337      87120        
     72300   72300          552.74444      305.99614      8165.9406      3052.8535      11218.794      62302.998      87120        
     72400   72400          553.37152      299.87283      8121.0176      2991.7627      11112.78       62096.093      87120        
     72500   72500          553.99614      299.18063      8058.1693      2984.8567      11043.026      61932.521      87120        
     72600   72600          554.62712      296.99007      8085.2838      2963.002       11048.286      61968.687      87120        
     72700   72700          555.25462      301.26954      8132.1526      3005.6973      11137.85       62206.229      87120        
     72800   72800          555.88719      308.10759      8119.2643      3073.919       11193.183      62158.226      87120        
     72900   72900          556.50926      299.3982       8103.7349      2987.0274      11090.762      61989.863      87120        
     73000   73000          557.13214      292.6692       8162.9983      2919.8937      11082.892      62261.93       87120        
     73100   73100          557.75375      299.6744       8165.5397      2989.7829      11155.323      62289.32       87120        
     73200   73200          558.37836      306.15669      8137.9825      3054.4553      11192.438      62198.625      87120        
     73300   73300          559.00167      294.49638      8153.2384      2938.123       11091.361      62286.533      87120        
     73400   73400          559.62351      294.6541       8150.388       2939.6966      11090.085      62286.343      87120        
     73500   73500          560.24277      299.33161      8171.5479      2986.363       11157.911      62391.198      87120        
     73600   73600          560.86246      303.1217       8162.3538      3024.1758      11186.53       62309.935      87120        
     73700   73700          561.47925      304.94855      8142.07        3042.4019      11184.472      62229.004      87120        
     73800   73800          562.09422      297.80879      8097.8499      2971.1702      11069.02       62160.624      87120        
     73900   73900          562.71449      292.75294      8123.7754      2920.7291      11044.505      62174.706      87120        
     74000   74000          563.32898      304.70307      8035.1266      3039.9528      11075.079      61809.537      87120        
     74100   74100          563.9345       300.65461      8084.4464      2999.5623      11084.009      61982.416      87120        
     74200   74200          564.55454      302.7144       8063.1476      3020.1123      11083.26       61881.618      87120        
     74300   74300          565.1652       303.02114      8074.782       3023.1726      11097.955      61978.463      87120        
     74400   74400          565.77412      298.5858       8056.1891      2978.9222      11035.111      61903.162      87120        
     74500   74500          566.38311      294.47401      8046.1062      2937.8999      10984.006      61753.177      87120        
     74600   74600          567.00192      301.89819      8034.0865      3011.9691      11046.056      61723.466      87120        
     74700   74700          567.61174      306.20606      8070.1572      3054.9478      11125.105      61899.725      87120        
     74800   74800          568.22022      299.38766      8087.5465      2986.9222      11074.469      61968.642      87120        
     74900   74900          568.83066      295.7111       8087.4168      2950.242       11037.659      61947.464      87120        
     75000   75000          569.44483      300.56076      8094.6025      2998.6259      11093.228      62025.195      87120        
     75100   75100          570.06194      302.90691      8156.0022      3022.033       11178.035      62348.259      87120        
     75200   75200          570.67035      307.05589      8187.1052      3063.4264      11250.532      62437.487      87120        
     75300   75300          571.2802       306.15227      8097.5924      3054.4112      11152.004      62094.236      87120        
     75400   75400          571.89218      298.19401      8079.0793      2975.0134      11054.093      62011.849      87120        
     75500   75500          572.50634      295.5262       8089.2961      2948.3973      11037.693      62014.031      87120        
     75600   75600          573.11743      296.8764       8106.4103      2961.868       11068.278      62096.84       87120        
     75700   75700          573.72562      306.50962      8080.2116      3057.9764      11138.188      61958.488      87120        
     75800   75800          574.33312      304.91168      8079.9822      3042.0341      11122.016      61959.159      87120        
     75900   75900          574.94571      300.62485      8054.7296      2999.2653      11053.995      61903.303      87120        
     76000   76000          575.56356      297.15466      8072.4886      2964.6441      11037.133      61915.566      87120        
     76100   76100          576.1774       299.52485      8027.3108      2988.2909      11015.602      61799.522      87120        
     76200   76200          576.77624      299.37443      8021.4904      2986.7902      11008.281      61704.352      87120        
     76300   76300          577.38221      305.47332      8079.9863      3047.6375      11127.624      61946.581      87120        
     76400   76400          577.9994       307.07037      8107.7576      3063.5708      11171.328      62158.079      87120        
     76500   76500          578.60632      300.06286      8108.5127      2993.6585      11102.171      62095.258      87120        
     76600   76600          579.21404      299.10948      8100.6098      2984.1469      11084.757      62070.139      87120        
     76700   76700          579.81879      303.19508      8074.9767      3024.908       11099.885      61966.277      87120        
     76800   76800          580.42685      295.57992      8140.4782      2948.9332      11089.411      62161.497      87120        
     76900   76900          581.04211      294.46268      8103.0458      2937.7868      11040.833      62164.48       87120        
     77000   77000          581.65142      303.13786      8106.5408      3024.3371      11130.878      62136.572      87120        
     77100   77100          582.25872      304.8051       8121.986       3040.9707      11162.957      62121.984      87120        
     77200   77200          582.85365      304.09722      8097.1997      3033.9084      11131.108      62041.233      87120        
     77300   77300          583.45948      297.30855      8109.5671      2966.1794      11075.746      62012.868      87120        
     77400   77400          584.06206      294.29692      8101.3609      2936.1331      11037.494      62025.925      87120        
     77500   77500          584.66353      297.42853      8098.1792      2967.3764      11065.556      62002.318      87120        
     77600   77600          585.26834      308.24039      8071.4513      3075.2438      11146.695      61929.704      87120        
     77700   77700          585.87003      300.98505      8110.9585      3002.859       11113.817      62058.117      87120        
     77800   77800          586.47156      297.34441      8088.3948      2966.5372      11054.932      61932.776      87120        
     77900   77900          587.06308      296.00063      8101.6538      2953.1306      11054.784      62023.799      87120        
     78000   78000          587.66466      305.93382      8104.0409      3052.2317      11156.273      62044.228      87120        
     78100   78100          588.26793      309.78563      8115.8556      3090.6604      11206.516      62143.667      87120        
     78200   78200          588.87227      301.39404      8128.6827      3006.9394      11135.622      62102.019      87120        
     78300   78300          589.46533      301.42174      8091.905       3007.2157      11099.121      61963.325      87120        
     78400   78400          590.06787      306.08276      8024.1422      3053.7177      11077.86       61773.662      87120        
     78500   78500          590.66838      293.42484      8127.3252      2927.4325      11054.758      62147.749      87120        
     78600   78600          591.26426      303.35374      8082.5107      3026.4909      11109.002      61992.694      87120        
     78700   78700          591.86412      308.84147      8146.2225      3081.2407      11227.463      62209.881      87120        
     78800   78800          592.46504      302.8581       8153.5475      3021.546       11175.093      62286.775      87120        
     78900   78900          593.06171      299.07138      8136.6352      2983.7667      11120.402      62164.575      87120        
     79000   79000          593.65276      296.97892      8140.0561      2962.8908      11102.947      62138.202      87120        
     79100   79100          594.24653      296.30025      8136.419       2956.1198      11092.539      62200.683      87120        
     79200   79200          594.84149      302.18944      8119.1646      3014.875       11134.04       62099.596      87120        
     79300   79300          595.43471      311.13         8095.7495      3104.0728      11199.822      62083.354      87120        
     79400   79400          596.02833      301.94397      8095.1422      3012.426       11107.568      62082.61       87120        
     79500   79500          596.61171      296.46571      8126.5178      2957.7706      11084.288      62102.384      87120        
     79600   79600          597.21012      298.60262      8144.5141      2979.09        11123.604      62230.232      87120        
     79700   79700          597.80725      303.45159      8130.1371      3027.4671      11157.604      62187.961      87120        
     79800   79800          598.39959      296.31854      8194.524       2956.3022      11150.826      62358.854      87120        
     79900   79900          598.99134      303.90957      8110.2022      3032.0362      11142.238      62105.336      87120        
     80000   80000          599.57318      295.51342      8128.5728      2948.2698      11076.843      62179.429      87120        
     80100   80100          600.15943      295.74416      8089.4129      2950.5718      11039.985      61975.448      87120        
     80200   80200          600.74707      302.69995      8095.9243      3019.9682      11115.893      62001.445      87120        
     80300   80300          601.32757      304.86849      8092.6323      3041.6032      11134.236      61993.811      87120        
     80400   80400          601.91382      299.95752      8090.4831      2992.6076      11083.091      61960.408      87120        
     80500   80500          602.50522      297.08282      8093.6667      2963.9273      11057.594      61890.799      87120        
     80600   80600          603.10229      301.38807      8098.4147      3006.8798      11105.295      61968.514      87120        
     80700   80700          603.68974      309.15296      8093.3947      3084.3483      11177.743      62003.484      87120        
     80800   80800          604.28186      304.41009      8097.0947      3037.0298      11134.125      61969.257      87120        
     80900   80900          604.86975      296.47194      8097.1013      2957.8327      11054.934      62043.588      87120        
     81000   81000          605.45245      297.01904      8120.9976      2963.291       11084.289      62095.881      87120        
     81100   81100          606.04162      304.70665      8129.4963      3039.9886      11169.485      62082.556      87120        
     81200   81200          606.62838      304.39021      8156.0099      3036.8315      11192.841      62252.505      87120        
     81300   81300          607.22907      300.50474      8127.0015      2998.067       11125.069      62110.527      87120        
     81400   81400          607.80829      297.55871      8120.112       2968.6752      11088.787      62140.523      87120        
     81500   81500          608.39789      299.72528      8113.3425      2990.2906      11103.633      62113.985      87120        
     81600   81600          608.98766      302.98597      8103.8427      3022.8217      11126.664      61925.749      87120        
     81700   81700          609.57741      304.45074      8078.1574      3037.4354      11115.593      61923.229      87120        
     81800   81800          610.16175      295.80819      8041.7747      2951.2106      10992.985      61753.84       87120        
     81900   81900          610.73766      292.53783      8042.9261      2918.583       10961.509      61794.43       87120        
     82000   82000          611.32131      302.12846      8043.5181      3014.2665      11057.785      61857.873      87120        
     82100   82100          611.90046      301.76503      8061.1093      3010.6407      11071.75       61795.473      87120        
     82200   82200          612.47858      299.18219      8091.4723      2984.8722      11076.345      62003.257      87120        
     82300   82300          613.05986      303.53471      8066.254       3028.2963      11094.55       61842.256      87120        
     82400   82400          613.64477      303.66103      8094.7423      3029.5566      11124.299      61937.308      87120        
     82500   82500          614.22934      298.1037       8114.064       2974.1124      11088.176      62030.235      87120        
     82600   82600          614.81332      298.048        8072.4825      2973.5567      11046.039      61806.809      87120        
     82700   82700          615.3957       298.05914      8103.94        2973.6679      11077.608      62071.723      87120        
     82800   82800          615.97728      304.69763      8157.6655      3039.8986      11197.564      62290.919      87120        
     82900   82900          616.57024      308.9692       8158.0778      3082.515       11240.593      62300.699      87120        
     83000   83000          617.16204      298.97879      8185.6502      2982.843       11168.493      62413.05       87120        
     83100   83100          617.73868      302.21684      8164.815       3015.1482      11179.963      62304.362      87120        
     83200   83200          618.32555      301.83217      8168.7834      3011.3105      11180.094      62368.264      87120        
     83300   83300          618.92674      297.72439      8198.6535      2970.3281      11168.982      62503.699      87120        
     83400   83400          619.50404      300.20687      8229.4531      2995.0952      11224.548      62573.347      87120        
     83500   83500          620.09314      310.63342      8180.9135      3099.1186      11280.032      62427.538      87120        
     83600   83600          620.68111      301.45293      8169.8627      3007.5269      11177.39       62322.646      87120        
     83700   83700          621.25414      298.78001      8122.8768      2980.8598      11103.737      62130.18       87120        
     83800   83800          621.83498      298.57918      8113.8075      2978.8562      11092.664      62045.657      87120        
     83900   83900          622.41386      307.39527      8016.1343      3066.8123      11082.947      61622.07       87120        
     84000   84000          622.98764      301.19909      8019.1833      3004.9944      11024.178      61745.442      87120        
     84100   84100          623.56156      299.5915       8037.1132      2988.9558      11026.069      61708.996      87120        
     84200   84200          624.13774      302.10699      8048.0142      3014.0524      11062.067      61792.612      87120        
     84300   84300          624.71723      297.18912      8098.964       2964.9879      11063.952      62026.093      87120        
     84400   84400          625.29002      297.44151      8108.499       2967.5059      11076.005      61976.66       87120        
     84500   84500          625.86851      297.64554      8138.9492      2969.5415      11108.491      62227.87       87120        
     84600   84600          626.44728      298.6229       8190.9083      2979.2923      11170.201      62409.207      87120        
     84700   84700          627.02917      308.75517      8189.208       3080.3797      11269.588      62506.647      87120        
     84800   84800          627.60116      299.16273      8241.4833      2984.6781      11226.161      62722.524      87120        
     84900   84900          628.18391      301.55943      8165.4429      3008.5894      11174.032      62356.906      87120        
     85000   85000          628.76339      298.6589       8134.8421      2979.6516      11114.494      62167.962      87120        
     85100   85100          629.34159      296.14954      8156.611       2954.6162      11111.227      62250.326      87120        
     85200   85200          629.9231       306.17751      8153.1084      3054.663       11207.771      62238.009      87120        
     85300   85300          630.49002      311.93481      8080.5338      3112.1022      11192.636      62003.617      87120        
     85400   85400          631.06456      300.4106       8085.6766      2997.1278      11082.804      61843.682      87120        
     85500   85500          631.6247       297.10898      8084.6845      2964.1883      11048.873      61897.26       87120        
     85600   85600          632.19325      296.96301      8092.699       2962.732       11055.431      61977.306      87120        
     85700   85700          632.75488      306.74807      8066.6527      3060.3553      11127.008      61793.554      87120        
     85800   85800          633.32642      300.80853      8051.4458      3001.0979      11052.544      61829.309      87120        
     85900   85900          633.89982      298.65713      8023.4817      2979.6339      11003.116      61715.485      87120        
     86000   86000          634.4648       296.35268      8098.4439      2956.6429      11055.087      61986.48       87120        
     86100   86100          635.03599      305.89835      8108.7068      3051.8779      11160.585      62186.287      87120        
     86200   86200          635.61145      307.91018      8119.7307      3071.9494      11191.68       62210.952      87120        
     86300   86300          636.18164      301.50449      8100.4012      3008.0414      11108.443      62099.486      87120        
     86400   86400          636.74603      297.44012      8165.6924      2967.492       11133.184      62368.459      87120        
     86500   86500          637.32065      298.09573      8231.5024      2974.0329      11205.535      62567.32       87120        
     86600   86600          637.89152      304.17897      8212.3857      3034.724       11247.11       62533.942      87120        
     86700   86700          638.46606      307.16983      8177.0562      3064.5631      11241.619      62393.789      87120        
     86800   86800          639.03164      300.55243      8109.5161      2998.5428      11108.059      62149.798      87120        
     86900   86900          639.60425      295.62633      8102.2266      2949.3963      11051.623      62040.132      87120        
     87000   87000          640.16953      298.14246      8122.3244      2974.4992      11096.824      62094.372      87120        
     87100   87100          640.73334      301.4966       8146.8575      3007.9626      11154.82       62255.853      87120        
     87200   87200          641.30207      307.37303      8079.6625      3066.5905      11146.253      61931.027      87120        
     87300   87300          641.86577      295.79806      8108.0678      2951.1096      11059.177      62091.017      87120        
     87400   87400          642.42594      299.55503      8062.0509      2988.592       11050.643      61894.014      87120        
     87500   87500          642.99648      300.95769      8093.0016      3002.586       11095.588      62033.984      87120        
     87600   87600          643.56654      301.81603      8108.3298      3011.1495      11119.479      62132.515      87120        
     87700   87700          644.13306      298.50013      8081.7143      2978.0675      11059.782      61912.2        87120        
     87800   87800          644.6902       292.87035      8076.8661      2921.9005      10998.767      61940.004      87120        
     87900   87900          645.25784      297.9937       8095.523       2973.0149      11068.538      62030.443      87120        
     88000   88000          645.82904      301.13453      8111.4677      3004.3504      11115.818      62046.67       87120        
     88100   88100          646.39588      299.34732      8094.3159      2986.5197      11080.836      62105.977      87120        
     88200   88200          646.95461      294.28616      8126.0373      2936.0257      11062.063      62128.966      87120        
     88300   88300          647.51461      302.55056      8121.9043      3018.4777      11140.382      62182.811      87120        
     88400   88400          648.08041      306.89684      8111.1131      3061.8396      11172.953      62126.833      87120        
     88500   88500          648.63776      298.41187      8111.3224      2977.187       11088.509      62049.87       87120        
     88600   88600          649.20283      300.88898      8078.5341      3001.9005      11080.435      62038.297      87120        
     88700   88700          649.77575      299.38178      8133.9716      2986.8635      11120.835      62216.677      87120        
     88800   88800          650.33748      301.85629      8144.4633      3011.5511      11156.014      62240.234      87120        
     88900   88900          650.90685      303.74734      8059.3192      3030.4177      11089.737      61950.823      87120        
     89000   89000          651.47401      294.1436       8065.9332      2934.6034      11000.537      61831.331      87120        
     89100   89100          652.0283       298.24514      8077.4798      2975.5236      11053.003      61989.004      87120        
     89200   89200          652.58684      299.91898      8134.5481      2992.223       11126.771      62115.091      87120        
     89300   89300          653.14439      301.45521      8124.6393      3007.5496      11132.189      62097.464      87120        
     89400   89400          653.70191      304.62085      8055.483       3039.1326      11094.616      61931.098      87120        
     89500   89500          654.26813      289.357        8098.1146      2886.8486      10984.963      61976.73       87120        
     89600   89600          654.82373      294.8259       8091.1174      2941.4105      11032.528      62054.717      87120        
     89700   89700          655.38786      298.49639      8121.5726      2978.0302      11099.603      62161.951      87120        
     89800   89800          655.93866      302.28995      8140.0756      3015.8777      11155.953      62189.857      87120        
     89900   89900          656.49282      301.05404      8155.0061      3003.5473      11158.553      62317.221      87120        
     90000   90000          657.05385      302.42827      8075.4749      3017.2577      11092.733      61990.43       87120        
     90100   90100          657.61215      295.22823      8100.9362      2945.4246      11046.361      62166.191      87120        
     90200   90200          658.16731      299.23836      8111.4347      2985.4327      11096.867      62185.463      87120        
     90300   90300          658.71842      298.39006      8145.6799      2976.9694      11122.649      62325.349      87120        
     90400   90400          659.27131      298.55349      8158.7276      2978.5998      11137.327      62326.771      87120        
     90500   90500          659.82577      303.27587      8142.5705      3025.714       11168.285      62163.722      87120        
     90600   90600          660.38179      302.47667      8087.1778      3017.7405      11104.918      62027.018      87120        
     90700   90700          660.92908      294.79866      8020.1807      2941.1388      10961.32       61646.484      87120        
     90800   90800          661.47939      293.62698      8040.0708      2929.4492      10969.52       61665.191      87120        
     90900   90900          662.03611      300.57184      8056.3393      2998.7365      11055.076      61893.726      87120        
     91000   91000          662.59343      302.64166      8059.6599      3019.3866      11079.046      61860.303      87120        
     91100   91100          663.13804      299.04812      8051.371       2983.5347      11034.906      61823.199      87120        
     91200   91200          663.68906      291.5475       8034.9778      2908.7027      10943.681      61831.099      87120        
     91300   91300          664.24784      294.12524      8042.8403      2934.4202      10977.261      61809.693      87120        
     91400   91400          664.80504      296.62935      8077.6196      2959.4032      11037.023      61988.837      87120        
     91500   91500          665.36395      303.06098      8060.521       3023.57        11084.091      61911.735      87120        
     91600   91600          665.91248      302.00919      8088.2591      3013.0766      11101.336      61970.22       87120        
     91700   91700          666.47096      297.07207      8082.205       2963.8201      11046.025      61951.001      87120        
     91800   91800          667.02593      293.80595      8075.9598      2931.2347      11007.194      61954.332      87120        
     91900   91900          667.58268      298.055        8090.9077      2973.6265      11064.534      62092.844      87120        
     92000   92000          668.14304      302.36006      8086.0806      3016.5771      11102.658      61962.067      87120        
     92100   92100          668.69879      299.47926      8129.7076      2987.8361      11117.544      62163.189      87120        
     92200   92200          669.24443      303.12648      8084.8431      3024.2235      11109.067      62052.413      87120        
     92300   92300          669.80165      297.20368      8016.3487      2965.1331      10981.482      61669.15       87120        
     92400   92400          670.34696      293.83367      8028.5609      2931.5113      10960.072      61764.555      87120        
     92500   92500          670.90022      295.80515      8083.1559      2951.1803      11034.336      61924.754      87120        
     92600   92600          671.44422      304.50645      8038.5636      3037.9912      11076.555      61773.214      87120        
     92700   92700          671.99485      300.33348      8061.2517      2996.3584      11057.61       61867.815      87120        
     92800   92800          672.54289      298.83482      8042.809       2981.4067      11024.216      61801.453      87120        
     92900   92900          673.08348      295.14722      8058.4241      2944.6163      11003.04       61942.278      87120        
     93000   93000          673.62991      300.94694      8121.8216      3002.4788      11124.3        62074.273      87120        
     93100   93100          674.17682      308.14378      8090.0543      3074.28        11164.334      62023.077      87120        
     93200   93200          674.72401      299.42853      8097.8039      2987.33        11085.134      62145.228      87120        
     93300   93300          675.27719      296.68829      8069.1201      2959.9912      11029.111      61954.765      87120        
     93400   93400          675.82733      302.36487      8006.0329      3016.6252      11022.658      61752.987      87120        
     93500   93500          676.36469      303.23598      8015.7469      3025.316       11041.063      61799.834      87120        
     93600   93600          676.90927      303.46624      8059.8784      3027.6133      11087.492      61897.959      87120        
     93700   93700          677.44198      302.09168      8050.2281      3013.8996      11064.128      61889.448      87120        
     93800   93800          677.99838      295.92362      8058.8044      2952.3623      11011.167      61896.143      87120        
     93900   93900          678.53692      299.27204      8020.7557      2985.7687      11006.524      61742.778      87120        
     94000   94000          679.08135      302.04393      8031.2368      3013.4232      11044.66       61712.318      87120        
     94100   94100          679.61542      303.46398      8129.5599      3027.5907      11157.151      62121.756      87120        
     94200   94200          680.15518      304.82394      8078.4715      3041.1587      11119.63       62050.9        87120        
     94300   94300          680.69474      297.29506      8091.8956      2966.0448      11057.94       62044.396      87120        
     94400   94400          681.23513      295.35082      8116.6148      2946.6475      11063.262      62132.266      87120        
     94500   94500          681.77706      300.63241      8106.4575      2999.3408      11105.798      62097.039      87120        
     94600   94600          682.32801      310.83923      8039.1057      3101.1719      11140.278      61850.394      87120        
     94700   94700          682.87358      296.1055       8063.2603      2954.1768      11017.437      61967.766      87120        
     94800   94800          683.41247      296.46664      8035.9114      2957.7798      10993.691      61773.049      87120        
     94900   94900          683.95375      299.87404      8070.201       2991.7747      11061.976      61871.272      87120        
     95000   95000          684.4871       302.764        8066.9277      3020.6072      11087.535      61910.217      87120        
     95100   95100          685.02064      298.07247      8055.5018      2973.8009      11029.303      61837.374      87120        
     95200   95200          685.55771      293.7085       8019.5783      2930.2625      10949.841      61714.326      87120        
     95300   95300          686.08656      294.44893      7939.5959      2937.6496      10877.245      61458.768      87120        
     95400   95400          686.62155      303.68112      7948.5836      3029.7571      10978.341      61501.512      87120        
     95500   95500          687.15296      301.49055      8015.4097      3007.9022      11023.312      61729.454      87120        
     95600   95600          687.68575      303.78476      7984.8194      3030.7911      11015.61       61643.505      87120        
     95700   95700          688.2234       298.23711      7998.9719      2975.4434      10974.415      61672.16       87120        
     95800   95800          688.76281      292.07499      8036.1755      2913.9653      10950.141      61755.213      87120        
     95900   95900          689.30362      304.04774      8024.0015      3033.4147      11057.416      61742.66       87120        
     96000   96000          689.84602      308.83269      8017.7794      3081.1531      11098.932      61797.752      87120        
     96100   96100          690.38381      302.97781      8001.1029      3022.7403      11023.843      61659.112      87120        
     96200   96200          690.91946      298.53521      8012.6717      2978.4175      10991.089      61743.588      87120        
     96300   96300          691.45449      301.87419      7991.0445      3011.7297      11002.774      61620.663      87120        
     96400   96400          691.98856      298.50894      8071.2092      2978.1554      11049.365      61869.052      87120        
     96500   96500          692.52628      308.93833      8025.8585      3082.2071      11108.066      61816.689      87120        
     96600   96600          693.06055      300.13119      8006.8257      2994.3402      11001.166      61681.92       87120        
     96700   96700          693.59225      293.62737      7985.0443      2929.4531      10914.497      61581.827      87120        
     96800   96800          694.12537      296.6089       7976.2656      2959.1991      10935.465      61571.986      87120        
     96900   96900          694.65927      298.29882      8007.9254      2976.0591      10983.984      61667.664      87120        
     97000   97000          695.19441      306.42814      7971.1246      3057.1635      11028.288      61593.756      87120        
     97100   97100          695.7218       292.88324      8035.7444      2922.0291      10957.774      61786.048      87120        
     97200   97200          696.25352      288.40551      8058.4757      2877.3558      10935.831      61762.305      87120        
     97300   97300          696.78495      300.53904      8009.026       2998.4093      11007.435      61668.843      87120        
     97400   97400          697.31664      298.12895      8075.1354      2974.3644      11049.5        61880.758      87120        
     97500   97500          697.84856      302.56107      7999.6849      3018.5826      11018.267      61644.147      87120        
     97600   97600          698.38385      297.15144      7951.7432      2964.612       10916.355      61484.728      87120        
     97700   97700          698.92158      290.58822      8016.8158      2899.1322      10915.948      61621.407      87120        
     97800   97800          699.45226      301.10303      8000.9896      3004.036       11005.026      61640.357      87120        
     97900   97900          699.98159      303.96387      7972.6452      3032.578       11005.223      61559.046      87120        
     98000   98000          700.51309      300.35533      7991.5606      2996.5764      10988.137      61613.135      87120        
     98100   98100          701.04255      297.14976      7986.8134      2964.5952      10951.409      61604.202      87120        
     98200   98200          701.57197      293.66298      7971.772       2929.8084      10901.58       61458.911      87120        
     98300   98300          702.09972      298.68058      7945.6988      2979.8678      10925.567      61456.646      87120        
     98400   98400          702.62764      305.60089      7969.0102      3048.9102      11017.92       61553.337      87120        
     98500   98500          703.1543       300.76582      7995.0147      3000.6718      10995.686      61645.075      87120        
     98600   98600          703.68446      298.2712       7992.9942      2975.7836      10968.778      61644.358      87120        
     98700   98700          704.21457      297.42556      7982.6481      2967.3467      10949.995      61507.64       87120        
     98800   98800          704.73442      302.82825      7963.5434      3021.2482      10984.792      61515.896      87120        
     98900   98900          705.26039      311.99712      7962.2974      3112.7239      11075.021      61550.948      87120        
     99000   99000          705.79231      303.64728      7991.6819      3029.4195      11021.101      61579.178      87120        
     99100   99100          706.31741      297.87646      7963.9292      2971.8453      10935.774      61460.5        87120        
     99200   99200          706.84589      295.79616      8011.3901      2951.0906      10962.481      61654.671      87120        
     99300   99300          707.37379      309.0903       7931.7338      3083.7232      11015.457      61435.99       87120        
     99400   99400          707.90508      303.29615      7975.1909      3025.9163      11001.107      61559.038      87120        
     99500   99500          708.43059      295.08093      7970.846       2943.955       10914.801      61509.867      87120        
     99600   99600          708.95379      290.85807      7975.1377      2901.8244      10876.962      61485.854      87120        
     99700   99700          709.48401      303.57514      7921.0439      3028.6997      10949.744      61333.112      87120        
     99800   99800          710.01376      301.09165      7942.6537      3003.9225      10946.576      61422.567      87120        
     99900   99900          710.53581      302.7735       7911.1498      3020.702       10931.852      61222.051      87120        
    100000   100000         711.06374      301.08209      7908.9743      3003.8272      10912.801      61251.705      87120        
    100100   100100         711.58814      292.69911      7955.4317      2920.1921      10875.624      61429.808      87120        
    100200   100200         712.11041      296.47479      7937.7024      2957.8611      10895.564      61299.446      87120        
    100300   100300         712.6427       300.79819      8001.2127      3000.9947      11002.207      61655.937      87120        
    100400   100400         713.16629      307.09324      8014.7565      3063.799       11078.555      61691.238      87120        
    100500   100500         713.69134      304.04944      7993.606       3033.4317      11027.038      61611.961      87120        
    100600   100600         714.22167      300.63009      7958.341       2999.3176      10957.659      61532.315      87120        
    100700   100700         714.73836      299.81073      7940.38        2991.1431      10931.523      61392.472      87120        
    100800   100800         715.26071      298.46972      7972.6082      2977.7641      10950.372      61490.223      87120        
    100900   100900         715.78655      307.68246      7961.5595      3069.6775      11031.237      61422.712      87120        
    101000   101000         716.30865      303.09582      7990.4653      3023.9176      11014.383      61487.08       87120        
    101100   101100         716.82175      304.35921      7877.3857      3036.5222      10913.908      61136.334      87120        
    101200   101200         717.33588      297.6901       7912.3951      2969.986       10882.381      61195.707      87120        
    101300   101300         717.84413      301.77363      7902.0872      3010.7265      10912.814      61209.179      87120        
    101400   101400         718.36395      301.65275      7945.6339      3009.5204      10955.154      61383.376      87120        
    101500   101500         718.88011      299.96433      7938.1445      2992.6755      10930.82       61358.606      87120        
    101600   101600         719.39115      290.94756      7948.7193      2902.7173      10851.437      61443.456      87120        
    101700   101700         719.91141      292.80067      7983.2845      2921.2053      10904.49       61458.136      87120        
    101800   101800         720.43272      300.84826      7993.4008      3001.4943      10994.895      61593.795      87120        
    101900   101900         720.94997      302.26807      7976.1669      3015.6594      10991.826      61511.029      87120        
    102000   102000         721.46487      296.90441      7986.5168      2962.1474      10948.664      61512.546      87120        
    102100   102100         721.97045      302.40618      7943.7766      3017.0373      10960.814      61442.391      87120        
    102200   102200         722.48596      311.00581      7945.661       3102.8339      11048.495      61389.431      87120        
    102300   102300         723.00357      303.33198      7938.5369      3026.2738      10964.811      61337.304      87120        
    102400   102400         723.5134       295.99483      7942.1582      2953.0727      10895.231      61319.485      87120        
    102500   102500         724.02227      302.36294      7889.6226      3016.6059      10906.228      61136.935      87120        
    102600   102600         724.53267      300.88026      7905.9703      3001.8135      10907.784      61233.814      87120        
    102700   102700         725.04268      297.55452      7920.9131      2968.6334      10889.546      61255.783      87120        
    102800   102800         725.55459      299.42403      7883.0924      2987.2851      10870.377      61203.6        87120        
    102900   102900         726.0642       294.94554      7913.5698      2942.6042      10856.174      61310.533      87120        
    103000   103000         726.57739      307.07552      7911.6336      3063.6222      10975.256      61379.133      87120        
    103100   103100         727.07859      306.45633      7960.9087      3057.4447      11018.353      61587.975      87120        
    103200   103200         727.59163      298.07757      7996.9692      2973.8517      10970.821      61611.216      87120        
    103300   103300         728.10224      298.81836      7977.7083      2981.2425      10958.951      61552.964      87120        
    103400   103400         728.61062      300.37695      7964.5674      2996.7921      10961.359      61529.368      87120        
    103500   103500         729.12125      299.28833      7935.8439      2985.9312      10921.775      61334.32       87120        
    103600   103600         729.62077      302.98362      7898.5404      3022.7983      10921.339      61242.395      87120        
    103700   103700         730.13025      309.38097      7889.4295      3086.6231      10976.053      61164.329      87120        
    103800   103800         730.63013      300.86424      7881.9562      3001.6537      10883.61       61069.673      87120        
    103900   103900         731.1374       295.73713      7862.6556      2950.5017      10813.157      61033.43       87120        
    104000   104000         731.63513      297.33704      7895.6373      2966.4637      10862.101      61126.446      87120        
    104100   104100         732.13932      306.3671       7890.7034      3056.5545      10947.258      61130.582      87120        
    104200   104200         732.6442       306.19863      7906.4348      3054.8737      10961.309      61218.742      87120        
    104300   104300         733.15229      300.72612      7933.5191      3000.2757      10933.795      61292.466      87120        
    104400   104400         733.65722      297.98842      7985.9938      2972.9623      10958.956      61504.244      87120        
    104500   104500         734.15478      307.37864      7947.9479      3066.6463      11014.594      61459.194      87120        
    104600   104600         734.66467      299.10144      8013.5721      2984.0666      10997.639      61680.776      87120        
    104700   104700         735.17186      291.07156      7990.6138      2903.9544      10894.568      61541.269      87120        
    104800   104800         735.67135      294.23172      7945.9185      2935.4826      10881.401      61411.363      87120        
    104900   104900         736.18007      308.15998      7918.7012      3074.4416      10993.143      61310.757      87120        
    105000   105000         736.68878      298.13447      7935.2145      2974.4194      10909.634      61252.297      87120        
    105100   105100         737.18318      298.7382       7875.9152      2980.4427      10856.358      61054.541      87120        
    105200   105200         737.68217      299.71846      7888.9601      2990.2225      10879.183      61112.426      87120        
    105300   105300         738.18378      303.00402      7921.8689      3023.0018      10944.871      61239.827      87120        
    105400   105400         738.67531      308.97512      7918.1447      3082.5741      11000.719      61260.72       87120        
    105500   105500         739.17628      301.66105      7896.8454      3009.6033      10906.449      61171.646      87120        
    105600   105600         739.67298      297.10218      7914.7422      2964.1204      10878.863      61179.934      87120        
    105700   105700         740.17842      299.21914      7947.9072      2985.2409      10933.148      61366.809      87120        
    105800   105800         740.682        303.91221      7949.0936      3032.0626      10981.156      61386.171      87120        
    105900   105900         741.18373      299.81897      7935.849       2991.2252      10927.074      61388.826      87120        
    106000   106000         741.67763      294.22227      7974.6899      2935.3883      10910.078      61508.758      87120        
    106100   106100         742.17789      304.47908      7915.2754      3037.7181      10952.993      61293.262      87120        
    106200   106200         742.68155      299.42469      7968.109       2987.2917      10955.401      61503.771      87120        
    106300   106300         743.18382      302.19898      7933.0542      3014.9701      10948.024      61362.469      87120        
    106400   106400         743.68537      299.06021      7886.7215      2983.6553      10870.377      61148.367      87120        
    106500   106500         744.18724      290.5271       7871.0998      2898.5224      10769.622      61074.37       87120        
    106600   106600         744.6877       296.18491      7888.7106      2954.9691      10843.68       61130.259      87120        
    106700   106700         745.18316      301.83036      7910.8775      3011.2925      10922.17       61199.986      87120        
    106800   106800         745.6826       303.43366      7914.1625      3027.2883      10941.451      61215.052      87120        
    106900   106900         746.18416      299.8324       7936.2677      2991.3593      10927.627      61355.549      87120        
    107000   107000         746.6807       301.74113      7896.0074      3010.4023      10906.41       61247.117      87120        
    107100   107100         747.17545      293.15704      7923.6779      2924.7607      10848.439      61276.838      87120        
    107200   107200         747.66977      300.64957      7911.7367      2999.512       10911.249      61286.415      87120        
    107300   107300         748.16524      308.63218      7882.4705      3079.1526      10961.623      61159.812      87120        
    107400   107400         748.65904      301.77197      7905.4288      3010.7099      10916.139      61159.762      87120        
    107500   107500         749.15657      298.08749      7916.8921      2973.9507      10890.843      61232.047      87120        
    107600   107600         749.65326      297.0694       7896.4851      2963.7935      10860.279      61131.421      87120        
    107700   107700         750.14694      304.82047      7872.6834      3041.1241      10913.807      61065.579      87120        
    107800   107800         750.63949      305.76607      7896.203       3050.5581      10946.761      61128.071      87120        
    107900   107900         751.13639      296.14571      7903.1905      2954.578       10857.769      61096.271      87120        
    108000   108000         751.63026      297.48399      7863.2807      2967.9297      10831.21       61003.68       87120        
    108100   108100         752.11813      299.09887      7889.6632      2984.041       10873.704      61075.675      87120        
    108200   108200         752.60866      305.07383      7888.2301      3043.6518      10931.882      61065.129      87120        
    108300   108300         753.09225      305.10901      7902.1854      3044.0028      10946.188      61166.594      87120        
    108400   108400         753.58163      294.97086      7909.4826      2942.8567      10852.339      61091.17       87120        
    108500   108500         754.07103      297.49369      7885.7032      2968.0265      10853.73       61071.861      87120        
    108600   108600         754.56099      300.2374       7937.4868      2995.3999      10932.887      61308.231      87120        
    108700   108700         755.05216      306.6736       7894.8341      3059.6124      10954.446      61131.653      87120        
    108800   108800         755.54184      302.25931      7877.8746      3015.572       10893.447      61087.263      87120        
    108900   108900         756.03508      294.73459      7927.9852      2940.4996      10868.485      61235.027      87120        
    109000   109000         756.51916      302.13824      7906.1881      3014.3641      10920.552      61213.158      87120        
    109100   109100         757.00532      306.57927      7860.8351      3058.6713      10919.506      61047.543      87120        
    109200   109200         757.49445      296.19919      7865.1654      2955.1115      10820.277      61039.126      87120        
    109300   109300         757.98234      295.25035      7858.8141      2945.6452      10804.459      60992.114      87120        
    109400   109400         758.47554      296.4303       7904.9511      2957.4173      10862.368      61162.353      87120        
    109500   109500         758.97139      297.99274      7927.795       2973.0054      10900.8        61296.096      87120        
    109600   109600         759.46979      303.00153      7923.212       3022.977       10946.189      61313.589      87120        
    109700   109700         759.95996      305.37139      7886.2398      3046.6205      10932.86       61112.375      87120        
    109800   109800         760.44955      301.24436      7899.8953      3005.4461      10905.341      61266.276      87120        
    109900   109900         760.92881      299.9222       7898.3719      2992.2552      10890.627      61159.041      87120        
    110000   110000         761.41737      299.9215       7907.3798      2992.2482      10899.628      61176.356      87120        
    110100   110100         761.90199      308.86313      7852.1939      3081.4568      10933.651      60991.251      87120        
    110200   110200         762.3871       301.3875       7882.1738      3006.8741      10889.048      61006.324      87120        
    110300   110300         762.86007      293.87637      7869.9984      2931.9374      10801.936      60975.834      87120        
    110400   110400         763.34251      296.20245      7897.6253      2955.1441      10852.769      61055.54       87120        
    110500   110500         763.8168       304.21646      7908.1869      3035.0981      10943.285      61154.303      87120        
    110600   110600         764.30186      304.76463      7884.2212      3040.567       10924.788      61042.787      87120        
    110700   110700         764.78599      297.1348       7936.3374      2964.4459      10900.783      61219.27       87120        
    110800   110800         765.27426      298.67515      7955.2767      2979.8136      10935.09       61417.912      87120        
    110900   110900         765.76181      299.35923      7991.7533      2986.6385      10978.392      61500.262      87120        
    111000   111000         766.2375       310.3169       7918.4288      3095.9607      11014.389      61322.55       87120        
    111100   111100         766.722        301.64543      7890.8476      3009.4474      10900.295      61218.285      87120        
    111200   111200         767.199        295.40094      7859.8014      2947.1476      10806.949      60966.463      87120        
    111300   111300         767.66784      293.95495      7898.129       2932.7213      10830.85       61198.567      87120        
    111400   111400         768.1459       297.38496      7921.3961      2966.9417      10888.338      61229.719      87120        
    111500   111500         768.61418      302.40124      7883.2525      3016.988       10900.24       61058.506      87120        
    111600   111600         769.09102      295.43556      7926.455       2947.493       10873.948      61253.635      87120        
    111700   111700         769.56365      295.77915      7894.2802      2950.9209      10845.201      61102.436      87120        
    111800   111800         770.0442       292.83605      7880.7174      2921.5583      10802.276      61037.863      87120        
    111900   111900         770.52352      299.52553      7876.8992      2988.2977      10865.197      61085.239      87120        
    112000   112000         770.99455      306.03768      7959.3823      3053.268       11012.65       61434.995      87120        
    112100   112100         771.47296      305.71923      7997.8694      3050.0908      11047.96       61592.411      87120        
    112200   112200         771.95519      299.55034      7946.3005      2988.5452      10934.846      61362.091      87120        
    112300   112300         772.43213      291.81572      7968.9821      2911.3787      10880.361      61465.618      87120        
    112400   112400         772.90263      302.5791       7904.5094      3018.7625      10923.272      61215.763      87120        
    112500   112500         773.38522      301.87399      7917.7805      3011.7277      10929.508      61220.688      87120        
    112600   112600         773.86947      301.77465      7863.3903      3010.7367      10874.127      61031.622      87120        
    112700   112700         774.34889      288.48557      7873.3369      2878.1545      10751.491      60960.052      87120        
    112800   112800         774.82539      298.73295      7818.7924      2980.3903      10799.183      60796.693      87120        
    112900   112900         775.30337      304.12085      7853.4609      3034.1441      10887.605      60935.566      87120        
    113000   113000         775.77005      302.35476      7871.8048      3016.5242      10888.329      60977.548      87120        
    113100   113100         776.24018      299.07904      7860.6129      2983.8431      10844.456      60952.637      87120        
    113200   113200         776.713        291.38114      7912.5807      2907.0429      10819.624      61057.303      87120        
    113300   113300         777.18273      304.91785      7855.1334      3042.0957      10897.229      61001.37       87120        
    113400   113400         777.64749      307.07651      7964.4016      3063.632       11028.034      61493.201      87120        
    113500   113500         778.12471      309.47156      7959.7749      3087.5269      11047.302      61429.461      87120        
    113600   113600         778.60251      301.51459      7957.1713      3008.142       10965.313      61414.121      87120        
    113700   113700         779.07915      299.59381      7918.8733      2988.9789      10907.852      61253.975      87120        
    113800   113800         779.55436      293.65199      7937.1165      2929.6987      10866.815      61313.936      87120        
    113900   113900         780.02807      298.55005      7903.6357      2978.5656      10882.201      61207.601      87120        
    114000   114000         780.51058      304.30919      7907.8545      3036.0232      10943.878      61134.038      87120        
    114100   114100         780.98215      304.29864      7876.2089      3035.9179      10912.127      61058.026      87120        
    114200   114200         781.45219      297.02469      7890.6729      2963.3473      10854.02       61026.075      87120        
    114300   114300         781.92229      302.35239      7829.3338      3016.5006      10845.834      60836.065      87120        
    114400   114400         782.39184      295.80224      7833.3091      2951.1513      10784.46       60884.454      87120        
    114500   114500         782.85355      293.21057      7788.406       2925.2948      10713.701      60708.311      87120        
    114600   114600         783.32479      297.6147       7860.3813      2969.2338      10829.615      61001.528      87120        
    114700   114700         783.79295      297.44861      7957.0382      2967.5767      10924.615      61381.909      87120        
    114800   114800         784.26784      305.06254      7946.2945      3043.5392      10989.834      61377.177      87120        
    114900   114900         784.7429       294.36864      7978.2494      2936.8486      10915.098      61456.529      87120        
    115000   115000         785.20941      296.06052      7930.5243      2953.7281      10884.252      61251.049      87120        
    115100   115100         785.67984      294.98169      7989.4103      2942.9648      10932.375      61471.02       87120        
    115200   115200         786.15213      308.89077      7951.5435      3081.7326      11033.276      61295.522      87120        
    115300   115300         786.62425      304.36355      7907.2956      3036.5655      10943.861      61198.258      87120        
    115400   115400         787.09325      295.83829      7896.3995      2951.511       10847.91       61059.574      87120        
    115500   115500         787.55431      302.90358      7788.8623      3021.9997      10810.862      60667.42       87120        
    115600   115600         788.02441      297.7778       7788.4944      2970.861       10759.355      60639.634      87120        
    115700   115700         788.48248      294.29995      7846.6073      2936.1632      10782.771      60845.681      87120        
    115800   115800         788.94867      301.73901      7910.8623      3010.3811      10921.243      61136.046      87120        
    115900   115900         789.40599      305.30102      7869.168       3045.9185      10915.087      61042.035      87120        
    116000   116000         789.87438      303.19051      7823.5015      3024.8623      10848.364      60865.105      87120        
    116100   116100         790.33034      295.49556      7905.1362      2948.0916      10853.228      61157.106      87120        
    116200   116200         790.7972       302.8245       7889.0896      3021.2107      10910.3        61124.712      87120        
    116300   116300         791.2626       299.92864      7928.0825      2992.3195      10920.402      61239.703      87120        
    116400   116400         791.71812      298.77536      7857.3171      2980.8134      10838.13       61055.339      87120        
    116500   116500         792.18237      292.68727      7900.299       2920.0739      10820.373      61119.244      87120        
    116600   116600         792.65059      303.2366       7887.2069      3025.3222      10912.529      61129.554      87120        
    116700   116700         793.11016      301.17995      7904.2581      3004.8035      10909.062      61141.006      87120        
    116800   116800         793.57562      295.42106      7911.812       2947.3483      10859.16       61189.156      87120        
    116900   116900         794.04014      299.90596      7853.7109      2992.0932      10845.804      60945.11       87120        
    117000   117000         794.50567      307.52457      7905.6617      3068.1023      10973.764      61111.143      87120        
    117100   117100         794.95989      308.0219       7893.1447      3073.064       10966.209      61100.251      87120        
    117200   117200         795.42022      300.17323      7897.3394      2994.7596      10892.099      61022.864      87120        
    117300   117300         795.88461      298.14199      7884.1541      2974.4945      10858.649      61077.338      87120        
    117400   117400         796.34203      300.14175      7862.5981      2994.4455      10857.044      60984.094      87120        
    117500   117500         796.80636      299.8502       7861.9206      2991.5368      10853.457      61002.89       87120        
    117600   117600         797.26912      297.08604      7905.1787      2963.9595      10869.138      61187.741      87120        
    117700   117700         797.73287      309.86217      7845.6064      3091.4239      10937.03       61005.134      87120        
    117800   117800         798.19795      302.7614       7890.8777      3020.5812      10911.459      61082.293      87120        
    117900   117900         798.6535       298.89194      7854.4644      2981.9765      10836.441      60989.173      87120        
    118000   118000         799.10844      293.09963      7897.4732      2924.188       10821.661      61106.434      87120        
    118100   118100         799.56186      310.34898      7858.4899      3096.2808      10954.771      61026.697      87120        
    118200   118200         800.02541      309.6072       7897.596       3088.8802      10986.476      61168.772      87120        
    118300   118300         800.48283      300.06334      7931.5816      2993.6633      10925.245      61280.175      87120        
    118400   118400         800.94803      297.9628       7948.7626      2972.7067      10921.469      61351.882      87120        
    118500   118500         801.40543      299.76015      7920.4126      2990.6385      10911.051      61238.649      87120        
    118600   118600         801.8604       297.87842      7910.4121      2971.8649      10882.277      61221.319      87120        
    118700   118700         802.32258      295.23629      7917.4042      2945.5049      10862.909      61202.789      87120        
    118800   118800         802.78528      302.83932      7882.5874      3021.3586      10903.946      61090.641      87120        
    118900   118900         803.2481       303.69147      7942.4427      3029.8603      10972.303      61334.676      87120        
    119000   119000         803.71434      306.17494      7938.6168      3054.6373      10993.254      61343.207      87120        
    119100   119100         804.17203      293.97084      7946.0709      2932.8798      10878.951      61368.484      87120        
    119200   119200         804.63561      293.78059      7953.225       2930.9817      10884.207      61453.841      87120        
    119300   119300         805.10034      302.2738       7953.4557      3015.7166      10969.172      61436.65       87120        
    119400   119400         805.5653       306.2857       7948.4968      3055.7424      11004.239      61447.755      87120        
    119500   119500         806.03185      300.63328      7934.2474      2999.3495      10933.597      61329.283      87120        
    119600   119600         806.49694      298.95715      7928.2689      2982.6271      10910.896      61345.964      87120        
    119700   119700         806.95891      298.65217      7929.547       2979.5844      10909.131      61335.483      87120        
    119800   119800         807.42273      301.47346      7919.4873      3007.7317      10927.219      61299.043      87120        
    119900   119900         807.89116      303.44786      7903.1172      3027.4299      10930.547      61201.438      87120        
    120000   120000         808.34403      298.69353      7912.6767      2979.997       10892.674      61221.332      87120        
    120100   120100         808.79873      295.63333      7877.6318      2949.4661      10827.098      60989.168      87120        
    120200   120200         809.24503      297.10706      7882.2449      2964.1692      10846.414      61110.588      87120        
    120300   120300         809.70037      307.856        7878.7748      3071.4089      10950.184      61112.804      87120        
    120400   120400         810.15672      305.8051       7890.8132      3050.9475      10941.761      61107.761      87120        
    120500   120500         810.60598      302.29244      7871.2507      3015.9026      10887.153      61050.88       87120        
    120600   120600         811.06795      296.38265      7934.7803      2956.9419      10891.722      61312.893      87120        
    120700   120700         811.52594      296.58343      7953.2287      2958.945       10912.174      61311.16       87120        
    120800   120800         811.98373      304.92263      7875.0561      3042.1433      10917.199      61119.584      87120        
    120900   120900         812.44152      291.11032      7904.6857      2904.341       10809.027      61217.244      87120        
    121000   121000         812.88946      302.05065      7841.6041      3013.4902      10855.094      61063.868      87120        
    121100   121100         813.34473      303.56271      7885.4243      3028.5757      10914          61170.615      87120        
    121200   121200         813.80355      302.34728      7893.7184      3016.4496      10910.168      61161.949      87120        
    121300   121300         814.26254      295.83818      7926.5997      2951.5099      10878.11       61213.103      87120        
    121400   121400         814.71934      301.33058      7904.5609      3006.3062      10910.867      61210.622      87120        
    121500   121500         815.1736       307.23559      7891.0072      3065.2192      10956.226      61167.963      87120        
    121600   121600         815.62746      303.06065      7847.4855      3023.5668      10871.052      60974.243      87120        
    121700   121700         816.0746       295.01163      7872.7431      2943.2635      10816.007      61063.695      87120        
    121800   121800         816.53186      301.31763      7858.1015      3006.1771      10864.279      61011.767      87120        
    121900   121900         816.98809      298.72456      7924.3205      2980.3066      10904.627      61252.241      87120        
    122000   122000         817.4451       303.59425      7909.0284      3028.8904      10937.919      61287.395      87120        
    122100   122100         817.9002       300.04329      7933.6995      2993.4633      10927.163      61392.904      87120        
    122200   122200         818.35512      297.83984      7947.0027      2971.48        10918.483      61440.931      87120        
    122300   122300         818.81044      298.32406      7957.8168      2976.3109      10934.128      61449.818      87120        
    122400   122400         819.26563      302.16691      7975.0674      3014.6501      10989.718      61509.148      87120        
    122500   122500         819.7216       309.19377      7916.4444      3084.7555      11001.2        61340.174      87120        
    122600   122600         820.1771       298.71234      7922.7605      2980.1846      10902.945      61244.911      87120        
    122700   122700         820.63099      297.87031      7895.5135      2971.7839      10867.297      61189.653      87120        
    122800   122800         821.08112      301.36061      7874.7471      3006.6059      10881.353      61075.028      87120        
    122900   122900         821.53114      305.85171      7856.0555      3051.4126      10907.468      61043.674      87120        
    123000   123000         821.98279      298.38296      7884.7086      2976.8985      10861.607      61139.797      87120        
    123100   123100         822.4301       286.05088      7928.1245      2853.8642      10781.989      61260.924      87120        
    123200   123200         822.88289      301.0281       7892.807       3003.2885      10896.096      61216.039      87120        
    123300   123300         823.33483      300.58311      7966.5507      2998.8489      10965.4        61432.799      87120        
    123400   123400         823.79035      307.27816      7923.5585      3065.6439      10989.202      61335.396      87120        
    123500   123500         824.24265      296.52056      7954.2914      2958.3178      10912.609      61417.184      87120        
    123600   123600         824.70269      292.29112      7990.045       2916.1216      10906.167      61500.208      87120        
    123700   123700         825.1559       302.71604      7914.0839      3020.1287      10934.213      61256.806      87120        
    123800   123800         825.60923      305.21075      7880.1896      3045.0178      10925.207      61089.118      87120        
    123900   123900         826.06089      298.71397      7908.3923      2980.201       10888.593      61213.734      87120        
    124000   124000         826.51167      296.85945      7853.054       2961.6989      10814.753      60990.381      87120        
    124100   124100         826.95528      288.09845      7844.2427      2874.2923      10718.535      60857.188      87120        
    124200   124200         827.39926      296.50202      7867.4693      2958.1328      10825.602      61063.218      87120        
    124300   124300         827.8374       297.22585      7942.2823      2965.3543      10907.637      61357.169      87120        
    124400   124400         828.28918      307.23439      7874.2412      3065.2073      10939.448      61116.963      87120        
    124500   124500         828.7488       295.78888      7954.0806      2951.0179      10905.099      61497.057      87120        
    124600   124600         829.21824      295.45144      7941.6292      2947.6514      10889.281      61413.049      87120        
    124700   124700         829.67697      299.38179      7940.2613      2986.8636      10927.125      61433.778      87120        
    124800   124800         830.13555      308.13504      7950.02        3074.1928      11024.213      61494.666      87120        
    124900   124900         830.60892      305.66226      7968.5934      3049.5224      11018.116      61536.327      87120        
    125000   125000         831.07891      298.42088      7933.652       2977.2768      10910.929      61416.104      87120        
    125100   125100         831.54994      297.33162      7893.9118      2966.4095      10860.321      61171.879      87120        
    125200   125200         832.01176      298.55632      7888.6017      2978.6281      10867.23       61119.452      87120        
    125300   125300         832.48608      306.91003      7879.8709      3061.9712      10941.842      61126.361      87120        
    125400   125400         832.9551       305.80076      7868.587       3050.9043      10919.491      61027.751      87120        
    125500   125500         833.41235      291.46188      7863.09        2907.8485      10770.939      60990.537      87120        
    125600   125600         833.86855      297.83925      7825.9058      2971.4741      10797.38       60873.827      87120        
    125700   125700         834.3291       302.3621       7872.6063      3016.5975      10889.204      61064.197      87120        
    125800   125800         834.7858       304.42336      7904.4064      3037.1622      10941.569      61252.294      87120        
    125900   125900         835.25383      302.85151      7879.4022      3021.4802      10900.882      61121.201      87120        
    126000   126000         835.71179      293.72645      7916.45        2930.4415      10846.892      61307.76       87120        
    126100   126100         836.15982      299.01858      7919.1855      2983.24        10902.426      61367.03       87120        
    126200   126200         836.60878      300.06673      7950.86        2993.6971      10944.557      61421.906      87120        
    126300   126300         837.05669      297.9457       7958.616       2972.5361      10931.152      61498.932      87120        
    126400   126400         837.50596      296.32598      7935.578       2956.3765      10891.955      61433.374      87120        
    126500   126500         837.95576      293.70481      7915.5732      2930.2257      10845.799      61262.148      87120        
    126600   126600         838.40674      298.11832      7931.9212      2974.2583      10906.179      61411.224      87120        
    126700   126700         838.85853      300.15902      7933.1028      2994.6179      10927.721      61265.883      87120        
    126800   126800         839.31334      302.54005      7871.4603      3018.3729      10889.833      61114.441      87120        
    126900   126900         839.7707       298.78199      7848.245       2980.8796      10829.125      61058.995      87120        
    127000   127000         840.23968      297.23237      7843.9283      2965.4194      10809.348      60959.935      87120        
    127100   127100         840.68881      305.64079      7884.6965      3049.3083      10934.005      61171.407      87120        
    127200   127200         841.14744      308.77763      7891.332       3080.6038      10971.936      61246.697      87120        
    127300   127300         841.59504      303.65858      7880.9067      3029.5322      10910.439      61168.531      87120        
    127400   127400         842.04532      296.92114      7898.2185      2962.3143      10860.533      61249.125      87120        
    127500   127500         842.50385      298.91362      7897.9213      2982.1928      10880.114      61299.117      87120        
    127600   127600         842.95429      300.76207      7943.0725      3000.6344      10943.707      61443.955      87120        
    127700   127700         843.40849      307.53682      7924.1182      3068.2245      10992.343      61357.543      87120        
    127800   127800         843.86348      297.79474      7953.1171      2971.03        10924.147      61479.942      87120        
    127900   127900         844.32447      301.32438      7854.1177      3006.2444      10860.362      61041.468      87120        
    128000   128000         844.78485      297.92709      7852.157       2972.3504      10824.507      61000.252      87120        
    128100   128100         845.24543      298.99268      7860.3452      2982.9816      10843.327      61058.437      87120        
    128200   128200         845.69339      310.15111      7797.1179      3094.3067      10891.425      60782.002      87120        
    128300   128300         846.1383       302.83651      7822.5608      3021.3305      10843.891      60844.792      87120        
    128400   128400         846.59781      301.36332      7810.1755      3006.6329      10816.808      60835.322      87120        
    128500   128500         847.04964      299.60497      7858.3642      2989.0903      10847.454      60961.143      87120        
    128600   128600         847.50882      298.48735      7879.8369      2977.94        10857.777      61079.361      87120        
    128700   128700         847.95947      294.44727      7888.6153      2937.6331      10826.248      61137.061      87120        
    128800   128800         848.41635      291.60926      7892.7921      2909.3189      10802.111      61193.028      87120        
    128900   128900         848.87151      297.57918      7923.3804      2968.8795      10892.26       61344.864      87120        
    129000   129000         849.33089      300.63026      7921.6336      2999.3193      10920.953      61326.594      87120        
    129100   129100         849.78317      301.93383      7902.076       3012.3247      10914.401      61269.046      87120        
    129200   129200         850.23617      297.99992      7928.6782      2973.077       10901.755      61377.321      87120        
    129300   129300         850.68839      302.02233      7850.7771      3013.2077      10863.985      61006.416      87120        
    129400   129400         851.14584      294.88451      7848.1042      2941.9953      10790.1        61001.062      87120        
    129500   129500         851.60441      290.96951      7879.3452      2902.9363      10782.281      61051.738      87120        
    129600   129600         852.06331      309.99299      7783.2131      3092.7291      10875.942      60724.477      87120        
    129700   129700         852.52344      309.14025      7760.1798      3084.2215      10844.401      60695.183      87120        
    129800   129800         852.97736      298.70475      7819.5548      2980.1089      10799.664      60887.736      87120        
    129900   129900         853.42897      302.9257       7820.5966      3022.2204      10842.817      60921.519      87120        
    130000   130000         853.8864       303.49838      7814.8029      3027.9339      10842.737      60877.784      87120        
    130100   130100         854.34766      289.64776      7856.5174      2889.7495      10746.267      61047.399      87120        
    130200   130200         854.80568      300.07595      7823.0537      2993.7891      10816.843      60975.395      87120        
    130300   130300         855.26622      297.28099      7914.4454      2965.9044      10880.35       61321.536      87120        
    130400   130400         855.72934      304.16696      7854.9529      3034.6041      10889.557      61149.257      87120        
    130500   130500         856.19352      301.80616      7826.2488      3011.051       10837.3        61016.213      87120        
    130600   130600         856.65957      293.052        7855.6941      2923.7128      10779.407      61105.504      87120        
    130700   130700         857.12616      305.52299      7800.005       3048.133       10848.138      60923.855      87120        
    130800   130800         857.59241      308.07541      7846.1642      3073.5979      10919.762      61053.871      87120        
    130900   130900         858.06266      301.90692      7847.7513      3012.0563      10859.808      60964.38       87120        
    131000   131000         858.53104      299.53805      7844.5597      2988.4226      10832.982      60995.809      87120        
    131100   131100         858.99741      298.05592      7856.7388      2973.6357      10830.375      61019.008      87120        
    131200   131200         859.46077      303.12207      7832.7444      3024.1795      10856.924      60993.161      87120        
    131300   131300         859.93135      304.73068      7850.8909      3040.2282      10891.119      61059.666      87120        
    131400   131400         860.39985      304.82333      7843.4384      3041.1526      10884.591      61020.784      87120        
    131500   131500         860.86173      296.95163      7838.9312      2962.6184      10801.55       60924.198      87120        
    131600   131600         861.32232      303.34347      7787.6721      3026.3884      10814.06       60803.554      87120        
    131700   131700         861.78442      301.06894      7828.3505      3003.696       10832.047      61006.335      87120        
    131800   131800         862.24785      299.53405      7833.6472      2988.3827      10822.03       60988.108      87120        
    131900   131900         862.70724      302.86402      7809.0846      3021.6051      10830.69       60948.916      87120        
    132000   132000         863.18058      300.99402      7825.2312      3002.9484      10828.18       60877.351      87120        
    132100   132100         863.63941      303.97919      7810.9256      3032.7309      10843.657      60896.229      87120        
    132200   132200         864.10621      295.09707      7814.4329      2944.1159      10758.549      60884.32       87120        
    132300   132300         864.57274      296.64021      7777.6078      2959.5115      10737.119      60691.494      87120        
    132400   132400         865.0485       300.00698      7834.0056      2993.101       10827.107      60956.417      87120        
    132500   132500         865.52354      311.96667      7805.7602      3112.4201      10918.18       60941.359      87120        
    132600   132600         865.99987      297.87212      7886.4195      2971.802       10858.221      61117.987      87120        
    132700   132700         866.47587      298.73579      7862.486       2980.4187      10842.905      61121.615      87120        
    132800   132800         866.9525       296.72379      7869.2558      2960.3454      10829.601      61105.705      87120        
    132900   132900         867.41848      298.98753      7835.2105      2982.9302      10818.141      61015.514      87120        
    133000   133000         867.87844      295.19826      7856.2859      2945.1255      10801.411      61081.072      87120        
    133100   133100         868.32938      300.62433      7839.8428      2999.2601      10839.103      60994.716      87120        
    133200   133200         868.78066      304.38521      7851.828       3036.7816      10888.61       60997.417      87120        
    133300   133300         869.24407      302.33608      7817.0756      3016.3379      10833.413      60868.889      87120        
    133400   133400         869.69598      294.69494      7828.8367      2940.104       10768.941      60891.226      87120        
    133500   133500         870.14954      296.91768      7822.6667      2962.2798      10784.947      60866.813      87120        
    133600   133600         870.61604      298.09829      7836.6857      2974.0585      10810.744      60926.782      87120        
    133700   133700         871.07105      305.14858      7779.2314      3044.3976      10823.629      60736.211      87120        
    133800   133800         871.52754      297.76385      7829.1751      2970.7218      10799.897      60896.003      87120        
    133900   133900         871.98621      300.06547      7780.2073      2993.6845      10773.892      60678.024      87120        
    134000   134000         872.4478       291.97626      7816.8691      2912.9803      10729.849      60852.33       87120        
    134100   134100         872.90579      299.77304      7843.7522      2990.767       10834.519      61010.727      87120        
    134200   134200         873.37087      303.54575      7872.5763      3028.4065      10900.983      61190.05       87120        
    134300   134300         873.84011      302.19783      7848.7164      3014.9587      10863.675      61071.306      87120        
    134400   134400         874.32224      296.59903      7827.2926      2959.1007      10786.393      60947.695      87120        
    134500   134500         874.80271      295.92963      7808.0683      2952.4222      10760.49       60896.184      87120        
    134600   134600         875.28298      299.18349      7816.0807      2984.8853      10800.966      60817.851      87120        
    134700   134700         875.76191      304.14536      7815.9972      3034.3887      10850.386      60849.586      87120        
    134800   134800         876.23785      302.15601      7781.1354      3014.5413      10795.677      60755.535      87120        
    134900   134900         876.71056      293.8548       7782.1168      2931.7222      10713.839      60519.721      87120        
    135000   135000         877.18646      300.07675      7748.6746      2993.7971      10742.472      60586.032      87120        
    135100   135100         877.65788      304.24773      7754.4212      3035.41        10789.831      60626.741      87120        
    135200   135200         878.12653      300.64063      7818.2342      2999.4228      10817.657      60827.66       87120        
    135300   135300         878.59426      299.95593      7849.9856      2992.5917      10842.577      61047.337      87120        
    135400   135400         879.05671      293.54209      7847.1065      2928.6023      10775.709      61070.327      87120        
    135500   135500         879.52434      290.08194      7871.6818      2894.0811      10765.763      61164.495      87120        
    135600   135600         879.98609      300.609        7837.4719      2999.1073      10836.579      61058.629      87120        
    135700   135700         880.45128      299.39531      7848.3417      2986.9985      10835.34       61049.933      87120        
    135800   135800         880.91646      297.03329      7830.4363      2963.4332      10793.869      60907.008      87120        
    135900   135900         881.38765      300.37934      7742.2676      2996.816       10739.084      60579.267      87120        
    136000   136000         881.8525       284.23531      7794.6834      2835.7507      10630.434      60711.848      87120        
    136100   136100         882.31727      297.12716      7734.4795      2964.3697      10698.849      60499.505      87120        
    136200   136200         882.78601      302.16804      7755.6132      3014.6614      10770.275      60594.751      87120        
    136300   136300         883.25574      304.51474      7738.0038      3038.0739      10776.078      60548.224      87120        
    136400   136400         883.71559      302.23089      7752.0439      3015.2885      10767.332      60618.404      87120        
    136500   136500         884.19331      293.68489      7828.9224      2930.027       10758.949      60910.739      87120        
    136600   136600         884.67344      304.20579      7771.4629      3034.9915      10806.454      60726.349      87120        
    136700   136700         885.15291      299.13593      7871.9719      2984.4108      10856.383      61140.659      87120        
    136800   136800         885.63898      303.01074      7839.683       3023.0688      10862.752      61013.874      87120        
    136900   136900         886.1242       297.98161      7817.117       2972.8943      10790.011      60861.137      87120        
    137000   137000         886.60474      296.77611      7748.6945      2960.8674      10709.562      60629.044      87120        
    137100   137100         887.07526      297.11919      7731.5478      2964.2902      10695.838      60575.357      87120        
    137200   137200         887.54797      303.04748      7747.6653      3023.4354      10771.101      60591.258      87120        
    137300   137300         888.0224       310.69289      7763.7093      3099.7119      10863.421      60708.677      87120        
    137400   137400         888.49537      301.87214      7804.1612      3011.7092      10815.87       60784.069      87120        
    137500   137500         888.96418      302.0122       7765.4415      3013.1066      10778.548      60658.101      87120        
    137600   137600         889.44438      297.78028      7764.8571      2970.8857      10735.743      60670.946      87120        
    137700   137700         889.91384      297.69492      7748.3335      2970.0341      10718.368      60539.501      87120        
    137800   137800         890.3991       303.00744      7762.7446      3023.0359      10785.781      60705.151      87120        
    137900   137900         890.87735      306.50693      7815.1261      3057.9496      10873.076      60862.313      87120        
    138000   138000         891.35971      306.99791      7775.1816      3062.848       10838.03       60685.971      87120        
    138100   138100         891.84197      296.44661      7786.5312      2957.58        10744.111      60742.111      87120        
    138200   138200         892.32018      296.44539      7821.8947      2957.5678      10779.462      60902.046      87120        
    138300   138300         892.80286      303.77167      7809.4215      3030.6605      10840.082      60848.795      87120        
    138400   138400         893.29054      301.4479       7785.2324      3007.4767      10792.709      60815.533      87120        
    138500   138500         893.7776       297.47397      7750.5042      2967.8297      10718.334      60644.227      87120        
    138600   138600         894.26373      295.75147      7782.233       2950.6447      10732.878      60681.104      87120        
    138700   138700         894.74264      300.6304       7788.3555      2999.3207      10787.676      60770.018      87120        
    138800   138800         895.21832      302.59771      7740.5036      3018.9482      10759.452      60577.375      87120        
    138900   138900         895.69572      297.50355      7748.6564      2968.1248      10716.781      60539.513      87120        
    139000   139000         896.16504      297.61328      7732.5504      2969.2196      10701.77       60533.947      87120        
    139100   139100         896.63161      302.67398      7706.3649      3019.7091      10726.074      60356.125      87120        
    139200   139200         897.10305      309.22984      7738.1859      3085.1153      10823.301      60573.777      87120        
    139300   139300         897.57549      300.14509      7798.7428      2994.4789      10793.222      60800.085      87120        
    139400   139400         898.04767      293.28339      7804.9157      2926.0213      10730.937      60766.163      87120        
    139500   139500         898.51558      296.72671      7801.3745      2960.3745      10761.749      60881.158      87120        
    139600   139600         898.99637      303.66296      7782.3054      3029.5759      10811.881      60755.77       87120        
    139700   139700         899.47171      298.88261      7809.0685      2981.8834      10790.952      60882.168      87120        
    139800   139800         899.94589      292.6232       7776.1392      2919.4347      10695.574      60785.085      87120        
    139900   139900         900.42136      296.45509      7770.2624      2957.6646      10727.927      60734.357      87120        
    140000   140000         900.8913       302.75049      7735.7959      3020.4724      10756.268      60581.05       87120        
    140100   140100         901.36247      301.29151      7717.2613      3005.9165      10723.178      60463.752      87120        
    140200   140200         901.82697      297.4897       7735.9653      2967.9866      10703.952      60502.897      87120        
    140300   140300         902.30002      307.61402      7689.8224      3068.9947      10758.817      60376.513      87120        
    140400   140400         902.76817      299.86708      7756.1434      2991.7053      10747.849      60590.298      87120        
    140500   140500         903.24613      292.55767      7780.264       2918.781       10699.045      60708.798      87120        
    140600   140600         903.73493      299.63863      7746.1998      2989.4261      10735.626      60579.291      87120        
    140700   140700         904.22364      305.03232      7773.0167      3043.2377      10816.254      60685.916      87120        
    140800   140800         904.71778      307.80862      7838.6681      3070.9362      10909.604      60917.38       87120        
    140900   140900         905.20677      303.67495      7807.7501      3029.6955      10837.446      60904.85       87120        
    141000   141000         905.69895      299.73135      7755.8527      2990.3511      10746.204      60638.21       87120        
    141100   141100         906.18269      298.81716      7752.6994      2981.2304      10733.93       60622.364      87120        
    141200   141200         906.66464      300.67041      7709.0989      2999.7199      10708.819      60469.429      87120        
    141300   141300         907.15712      298.1632       7735.1113      2974.706       10709.817      60538.978      87120        
    141400   141400         907.63974      308.17184      7699.2667      3074.56        10773.827      60408.019      87120        
    141500   141500         908.11873      304.48598      7704.2522      3037.787       10742.039      60377.681      87120        
    141600   141600         908.6          301.4264       7633.2022      3007.2622      10640.464      60141.888      87120        
    141700   141700         909.09467      290.52261      7749.7541      2898.4776      10648.232      60567.132      87120        
    141800   141800         909.57805      300.1229       7769.8455      2994.2575      10764.103      60682.511      87120        
    141900   141900         910.06352      303.27953      7776.4126      3025.7505      10802.163      60676.905      87120        
    142000   142000         910.53952      299.56078      7781.2871      2988.6494      10769.937      60707.136      87120        
    142100   142100         911.01862      297.02312      7757.3775      2963.3317      10720.709      60642.241      87120        
    142200   142200         911.49422      298.18264      7742.2284      2974.9         10717.128      60609.827      87120        
    142300   142300         911.95983      302.07909      7749.4384      3013.774       10763.212      60650.218      87120        
    142400   142400         912.43558      300.08683      7757.6971      2993.8977      10751.595      60649.369      87120        
    142500   142500         912.91079      298.59753      7781.0716      2979.0393      10760.111      60713.081      87120        
    142600   142600         913.38897      301.26679      7778.7288      3005.6699      10784.399      60707.556      87120        
    142700   142700         913.86424      306.09861      7745.9892      3053.8758      10799.865      60647.615      87120        
    142800   142800         914.35072      300.84111      7724.0785      3001.423       10725.501      60487.266      87120        
    142900   142900         914.83464      292.59951      7753.7272      2919.1984      10672.926      60628.415      87120        
    143000   143000         915.31802      299.49148      7725.9172      2987.9579      10713.875      60536.172      87120        
    143100   143100         915.80541      302.32065      7767.2277      3016.184       10783.412      60711.214      87120        
    143200   143200         916.28247      306.30215      7775.938       3055.9065      10831.844      60715.056      87120        
    143300   143300         916.75908      304.53407      7734.2943      3038.2667      10772.561      60550.795      87120        
    143400   143400         917.24653      294.08127      7743.3524      2933.9816      10677.334      60552.127      87120        
    143500   143500         917.71343      297.52334      7730.1498      2968.3223      10698.472      60508.805      87120        
    143600   143600         918.20739      306.10002      7706.9821      3053.8899      10760.872      60439.884      87120        
    143700   143700         918.69343      302.57958      7755.7223      3018.7672      10774.489      60616.228      87120        
    143800   143800         919.1799       296.49753      7706.219       2958.088       10664.307      60389.011      87120        
    143900   143900         919.67732      295.71294      7681.4687      2950.2603      10631.729      60318.935      87120        
    144000   144000         920.16835      299.91867      7707.6608      2992.22        10699.881      60442.98       87120        
    144100   144100         920.64795      303.75809      7759.2722      3030.525       10789.797      60676.427      87120        
    144200   144200         921.13164      300.40252      7824.6391      2997.0472      10821.686      60948.237      87120        
    144300   144300         921.62597      301.21312      7788.7532      3005.1344      10793.888      60754.46       87120        
    144400   144400         922.11194      300.20049      7736.5956      2995.0316      10731.627      60577.95       87120        
    144500   144500         922.59501      293.61042      7758.1278      2929.284       10687.412      60591.485      87120        
    144600   144600         923.07973      294.20822      7760.1956      2935.2481      10695.444      60554.638      87120        
    144700   144700         923.56359      308.26047      7647.2374      3075.4442      10722.682      60256.534      87120        
    144800   144800         924.05587      296.67046      7725.1929      2959.8134      10685.006      60447.41       87120        
    144900   144900         924.54344      300.56171      7690.8837      2998.6354      10689.519      60312.313      87120        
    145000   145000         925.03151      304.98887      7662.5249      3042.8042      10705.329      60307.427      87120        
    145100   145100         925.52648      300.98472      7668.3054      3002.8557      10671.161      60285.278      87120        
    145200   145200         926.01512      295.16331      7719.2939      2944.7768      10664.071      60457.117      87120        
    145300   145300         926.50243      296.53149      7751.8688      2958.4268      10710.296      60626.062      87120        
    145400   145400         926.99001      304.83231      7799.4297      3041.2422      10840.672      60866.609      87120        
    145500   145500         927.47399      306.71757      7782.0987      3060.051       10842.15       60785.146      87120        
    145600   145600         927.96025      306.11279      7702.1277      3054.0172      10756.145      60452.883      87120        
    145700   145700         928.43182      298.62542      7740.5959      2979.3175      10719.913      60568.431      87120        
    145800   145800         928.91158      301.21124      7730.607       3005.1157      10735.723      60492.195      87120        
    145900   145900         929.40046      306.14019      7712.9616      3054.2906      10767.252      60446.332      87120        
    146000   146000         929.90012      299.22521      7758.378       2985.3014      10743.679      60578.816      87120        
    146100   146100         930.38017      300.80123      7699.4044      3001.0251      10700.429      60357.633      87120        
    146200   146200         930.86408      296.51813      7666.0745      2958.2935      10624.368      60266.54       87120        
    146300   146300         931.35778      298.43535      7685.9579      2977.4212      10663.379      60340.272      87120        
    146400   146400         931.86123      301.88348      7722.0869      3011.8224      10733.909      60455.326      87120        
    146500   146500         932.36264      301.86463      7757.7157      3011.6344      10769.35       60663.403      87120        
    146600   146600         932.86262      300.56547      7744.3913      2998.673       10743.064      60569.465      87120        
    146700   146700         933.36227      295.29849      7732.0833      2946.1255      10678.209      60540.963      87120        
    146800   146800         933.86805      299.10793      7728.2606      2984.1314      10712.392      60627.584      87120        
    146900   146900         934.37721      304.14437      7776.2315      3034.3788      10810.61       60695.943      87120        
    147000   147000         934.8858       302.62587      7795.4403      3019.2291      10814.669      60794.347      87120        
    147100   147100         935.39829      299.82161      7771.5136      2991.2516      10762.765      60607.563      87120        
    147200   147200         935.89961      301.65779      7740.3094      3009.5708      10749.88       60529.399      87120        
    147300   147300         936.40885      300.22106      7745.8047      2995.2368      10741.041      60602.939      87120        
    147400   147400         936.90869      297.313        7728.0113      2966.2238      10694.235      60436.283      87120        
    147500   147500         937.41696      292.99459      7745.3174      2923.14        10668.457      60537.923      87120        
    147600   147600         937.92478      304.47328      7721.0932      3037.6603      10758.754      60417.617      87120        
    147700   147700         938.4169       303.51047      7751.2603      3028.0545      10779.315      60532.913      87120        
    147800   147800         938.90757      302.74621      7712.528       3020.4297      10732.958      60463.221      87120        
    147900   147900         939.39408      292.75188      7775.856       2920.7185      10696.575      60609.477      87120        
    148000   148000         939.87989      296.36399      7772.3892      2956.7557      10729.145      60689.23       87120        
    148100   148100         940.34835      306.67913      7744.1422      3059.6676      10803.81       60646.596      87120        
    148200   148200         940.83693      297.73138      7818.5398      2970.3979      10788.938      60850.613      87120        
    148300   148300         941.31894      296.68565      7735.9665      2959.9648      10695.931      60632.426      87120        
    148400   148400         941.80047      294.53376      7770.8575      2938.496       10709.353      60723.699      87120        
    148500   148500         942.28685      301.93947      7786.1681      3012.381       10798.549      60761.076      87120        
    148600   148600         942.79071      299.19868      7793.5628      2985.0368      10778.6        60801.656      87120        
    148700   148700         943.29509      300.86004      7716.5638      3001.6118      10718.176      60440.962      87120        
    148800   148800         943.7984       297.55306      7695.9211      2968.6188      10664.54       60367.642      87120        
    148900   148900         944.28984      297.20072      7666.0252      2965.1036      10631.129      60225.475      87120        
    149000   149000         944.79678      300.96103      7679.4851      3002.6194      10682.104      60248.822      87120        
    149100   149100         945.297        304.60223      7714.2853      3038.9468      10753.232      60433.911      87120        
    149200   149200         945.80048      302.84809      7716.3777      3021.4461      10737.824      60416.526      87120        
    149300   149300         946.29938      297.99042      7705.412       2972.9823      10678.394      60366.443      87120        
    149400   149400         946.79908      299.09982      7726.6059      2984.0504      10710.656      60473.625      87120        
    149500   149500         947.30091      305.05048      7728.252       3043.4189      10771.671      60545.98       87120        
    149600   149600         947.80453      304.02445      7745.8141      3033.1824      10778.997      60639.66       87120        
    149700   149700         948.3171       297.4741       7786.6198      2967.831       10754.451      60689.111      87120        
    149800   149800         948.83136      295.99373      7799.7652      2953.0617      10752.827      60807.31       87120        
    149900   149900         949.33261      304.41197      7750.4115      3037.0485      10787.46       60645.318      87120        
    150000   150000         949.83248      304.91504      7742.2499      3042.0676      10784.318      60551.312      87120        
    150100   150100         950.33407      295.82134      7692.0937      2951.3418      10643.435      60365.823      87120        
    150200   150200         950.83397      296.14328      7650.4529      2954.5538      10605.007      60136.443      87120        
    150300   150300         951.3273       301.85412      7627.7141      3011.5295      10639.244      60103.612      87120        
    150400   150400         951.8341       300.69143      7704.3853      2999.9296      10704.315      60398.587      87120        
    150500   150500         952.32755      309.86596      7735.0818      3091.4618      10826.544      60510.992      87120        
    150600   150600         952.82273      305.50808      7732.432       3047.9843      10780.416      60561.383      87120        
    150700   150700         953.32863      297.99815      7752.4667      2973.0594      10725.526      60620.538      87120        
    150800   150800         953.82391      293.41755      7807.1297      2927.3597      10734.489      60817.131      87120        
    150900   150900         954.31927      302.7422       7766.4784      3020.3897      10786.868      60680.389      87120        
    151000   151000         954.81674      304.49471      7754.0374      3037.8741      10791.911      60638.63       87120        
    151100   151100         955.30974      290.00231      7778.8084      2893.2867      10672.095      60687.464      87120        
    151200   151200         955.80102      296.72776      7720.7267      2960.385       10681.112      60500.407      87120        
    151300   151300         956.29158      299.54485      7731.1998      2988.4904      10719.69       60551.002      87120        
    151400   151400         956.78359      302.53115      7720.5011      3018.2841      10738.785      60510.315      87120        
    151500   151500         957.2769       294.92747      7703.8861      2942.4239      10646.31       60430.327      87120        
    151600   151600         957.77402      290.81677      7756.943       2901.4124      10658.355      60628.9        87120        
    151700   151700         958.27199      302.15524      7772.9797      3014.5337      10787.513      60726.603      87120        
    151800   151800         958.77243      305.7658       7741.3427      3050.5554      10791.898      60642.805      87120        
    151900   151900         959.27946      297.60082      7754.4939      2969.0953      10723.589      60725.65       87120        
    152000   152000         959.78523      294.7575       7780.2675      2940.7282      10720.996      60757.517      87120        
    152100   152100         960.28615      298.93248      7762.6621      2982.3809      10745.043      60723.827      87120        
    152200   152200         960.79299      304.23394      7752.0725      3035.2724      10787.345      60666.221      87120        
    152300   152300         961.29891      303.916        7719.4957      3032.1004      10751.596      60531.523      87120        
    152400   152400         961.80561      299.50108      7721.9298      2988.0538      10709.984      60558.902      87120        
    152500   152500         962.31179      298.94074      7734.2419      2982.4634      10716.705      60520.497      87120        
    152600   152600         962.81261      301.62028      7727.0502      3009.1966      10736.247      60542.59       87120        
    152700   152700         963.31215      304.35858      7763.8062      3036.516       10800.322      60726.221      87120        
    152800   152800         963.81457      304.8062       7738.5335      3040.9817      10779.515      60550.527      87120        
    152900   152900         964.31532      299.22658      7715.6909      2985.3152      10701.006      60521.632      87120        
    153000   153000         964.82078      298.23898      7719.7086      2975.462       10695.171      60503.493      87120        
    153100   153100         965.30994      298.35059      7746.681       2976.5756      10723.257      60579.133      87120        
    153200   153200         965.80777      306.60994      7745.4413      3058.9773      10804.419      60620.878      87120        
    153300   153300         966.29732      306.50479      7811.2884      3057.9282      10869.217      60849.466      87120        
    153400   153400         966.7998       307.33841      7723.8099      3066.245       10790.055      60614.522      87120        
    153500   153500         967.30531      296.58902      7739.9559      2959.0008      10698.957      60518.429      87120        
    153600   153600         967.81699      296.9834       7743.1999      2962.9355      10706.135      60560.988      87120        
    153700   153700         968.32946      302.28212      7750.1492      3015.7996      10765.949      60607.875      87120        
    153800   153800         968.82972      300.63754      7787.6483      2999.3919      10787.04       60662.946      87120        
    153900   153900         969.34239      300.06186      7735.6563      2993.6485      10729.305      60524.517      87120        
    154000   154000         969.85669      289.97647      7731.176       2893.0289      10624.205      60477.532      87120        
    154100   154100         970.36406      293.80423      7733.3896      2931.2176      10664.607      60434.166      87120        
    154200   154200         970.87098      305.31221      7689.2207      3046.0301      10735.251      60419.007      87120        
    154300   154300         971.38622      301.69398      7720.3451      3009.9319      10730.277      60442.837      87120        
    154400   154400         971.88879      300.07646      7697.61        2993.7942      10691.404      60347.388      87120        
    154500   154500         972.39688      288.67576      7750.9855      2880.052       10631.038      60612.029      87120        
    154600   154600         972.92244      304.57461      7685.2689      3038.6712      10723.94       60425.264      87120        
    154700   154700         973.4369       302.32039      7804.8064      3016.1813      10820.988      60848.448      87120        
    154800   154800         973.95127      299.81562      7812.0276      2991.1919      10803.219      60885.058      87120        
    154900   154900         974.47218      299.21693      7774.9314      2985.2189      10760.15       60668.442      87120        
    155000   155000         974.98356      295.50518      7740.0762      2948.1876      10688.264      60632.065      87120        
    155100   155100         975.50154      296.02985      7707.4489      2953.4221      10660.871      60438.446      87120        
    155200   155200         976.01414      304.73608      7721.7015      3040.2822      10761.984      60528.236      87120        
    155300   155300         976.53521      301.97571      7746.9943      3012.7426      10759.737      60614.391      87120        
    155400   155400         977.04777      298.44671      7728.5811      2977.5345      10706.116      60506.555      87120        
    155500   155500         977.57185      293.80753      7695.2288      2931.2505      10626.479      60339.634      87120        
    155600   155600         978.08699      290.16341      7678.4413      2894.894       10573.335      60337.142      87120        
    155700   155700         978.58983      295.81074      7706.2645      2951.2361      10657.501      60488.738      87120        
    155800   155800         979.10527      300.35982      7766.3937      2996.6213      10763.015      60676.942      87120        
    155900   155900         979.63194      304.56713      7753.1704      3038.5966      10791.767      60642.223      87120        
    156000   156000         980.15569      297.23979      7770.4121      2965.4934      10735.905      60767.55       87120        
    156100   156100         980.67206      294.02972      7757.8064      2933.4672      10691.274      60583.895      87120        
    156200   156200         981.18545      306.61428      7735.7147      3059.0205      10794.735      60612.666      87120        
    156300   156300         981.69809      308.80073      7770.5811      3080.8343      10851.415      60705.605      87120        
    156400   156400         982.21229      294.71478      7780.2382      2940.302       10720.54       60638.505      87120        
    156500   156500         982.71377      299.61252      7750.2811      2989.1655      10739.447      60646.846      87120        
    156600   156600         983.22755      301.66327      7778.5899      3009.6255      10788.215      60730.669      87120        
    156700   156700         983.73267      301.55215      7797.7173      3008.5168      10806.234      60806.97       87120        
    156800   156800         984.2506       296.52931      7773.1059      2958.4051      10731.511      60854.438      87120        
    156900   156900         984.77515      292.59979      7809.6745      2919.2012      10728.876      60897.185      87120        
    157000   157000         985.29939      300.55359      7788.0681      2998.5544      10786.623      60771.003      87120        
    157100   157100         985.80901      303.65658      7755.0054      3029.5123      10784.518      60733.347      87120        
    157200   157200         986.31719      296.8762       7803.3977      2961.866       10765.264      60820.545      87120        
    157300   157300         986.82635      298.14611      7783.2444      2974.5356      10757.78       60782.83       87120        
    157400   157400         987.32673      309.21633      7736.1349      3084.9806      10821.116      60653.783      87120        
    157500   157500         987.85681      297.43696      7810.3071      2967.4605      10777.768      60845.814      87120        
    157600   157600         988.37696      297.40196      7741.3045      2967.1113      10708.416      60619.745      87120        
    157700   157700         988.88127      297.68456      7759.6045      2969.9308      10729.535      60611.396      87120        
    157800   157800         989.40103      304.44437      7830.1139      3037.3719      10867.486      61031.868      87120        
    157900   157900         989.92225      305.99236      7859.7797      3052.8158      10912.595      61103.487      87120        
    158000   158000         990.4442       303.7523       7832.207       3030.4673      10862.674      60976.528      87120        
    158100   158100         990.96242      302.38175      7788.7972      3016.7935      10805.591      60865.629      87120        
    158200   158200         991.48476      298.80935      7778.7578      2981.1525      10759.91       60806.716      87120        
    158300   158300         992.00733      297.31977      7793.7078      2966.2913      10759.999      60889.066      87120        
    158400   158400         992.53342      299.38021      7807.8776      2986.8479      10794.725      60894.442      87120        
    158500   158500         993.05446      308.68438      7768.9317      3079.6734      10848.605      60677.591      87120        
    158600   158600         993.56713      299.40329      7768.009       2987.0781      10755.087      60790.328      87120        
    158700   158700         994.08721      297.73831      7748.529       2970.467       10718.996      60647.625      87120        
    158800   158800         994.60587      295.34471      7803.8606      2946.5866      10750.447      60889.658      87120        
    158900   158900         995.12513      306.81754      7748.802       3061.0484      10809.85       60773.747      87120        
    159000   159000         995.65853      300.10488      7767.7715      2994.0777      10761.849      60695.593      87120        
    159100   159100         996.17695      302.34497      7723.8323      3016.4266      10740.259      60627.354      87120        
    159200   159200         996.68585      303.65134      7718.2267      3029.4599      10747.687      60662.351      87120        
    159300   159300         997.20378      299.67509      7762.2942      2989.7899      10752.084      60711.923      87120        
    159400   159400         997.71946      291.76934      7776.6983      2910.9159      10687.614      60865.159      87120        
    159500   159500         998.22098      294.88806      7731.1365      2942.0307      10673.167      60617.755      87120        
    159600   159600         998.73583      305.01714      7716.0663      3043.0863      10759.153      60619.748      87120        
    159700   159700         999.25223      301.67185      7781.073       3009.711       10790.784      60868.854      87120        
    159800   159800         999.76742      302.71767      7778.3233      3020.145       10798.468      60750.617      87120        
    159900   159900         1000.2844      296.97596      7765.7624      2962.8612      10728.624      60781.893      87120        
    160000   160000         1000.8017      297.52829      7715.1996      2968.3717      10683.571      60578.451      87120        
    160100   160100         1001.3061      298.8426       7756.9428      2981.4843      10738.427      60786.898      87120        
    160200   160200         1001.8133      303.20788      7786.5643      3025.0357      10811.6        60875.291      87120        
    160300   160300         1002.3267      304.71354      7791.8187      3040.0573      10831.876      60908.907      87120        
    160400   160400         1002.8512      302.60404      7766.2893      3019.0112      10785.301      60890.776      87120        
    160500   160500         1003.3619      296.33033      7722.6344      2956.4199      10679.054      60561.068      87120        
    160600   160600         1003.8775      296.65418      7734.3071      2959.6509      10693.958      60554.028      87120        
    160700   160700         1004.3971      296.98794      7797.0132      2962.9807      10759.994      60935          87120        
    160800   160800         1004.9239      304.98093      7779.1455      3042.7249      10821.87       60804.093      87120        
    160900   160900         1005.4599      304.25832      7770.1601      3035.5157      10805.676      60737.466      87120        
    161000   161000         1006.0021      293.49633      7813.0308      2928.1457      10741.176      60913.842      87120        
    161100   161100         1006.5236      300.0521       7763.2187      2993.5512      10756.77       60673.166      87120        
    161200   161200         1007.0327      301.01477      7774.6542      3003.1555      10777.81       60823.174      87120        
    161300   161300         1007.5547      301.0932       7767.6165      3003.9379      10771.554      60807.743      87120        
    161400   161400         1008.0794      304.42787      7722.9711      3037.2073      10760.178      60604.2        87120        
    161500   161500         1008.6093      298.94282      7733.3004      2982.4841      10715.785      60642.97       87120        
    161600   161600         1009.1446      296.39733      7727.9829      2957.0884      10685.071      60572.909      87120        
    161700   161700         1009.6606      306.38425      7734.5725      3056.7256      10791.298      60684.521      87120        
    161800   161800         1010.1872      307.91525      7796.6102      3072           10868.61       60904.262      87120        
    161900   161900         1010.7025      301.63819      7791.974       3009.3752      10801.349      60875.426      87120        
    162000   162000         1011.2272      298.17671      7788.7188      2974.8409      10763.56       60873.508      87120        
    162100   162100         1011.7436      298.20611      7817.7974      2975.1341      10792.932      60902.199      87120        
    162200   162200         1012.2514      302.70868      7804.8149      3020.0552      10824.87       60911.651      87120        
    162300   162300         1012.772       302.14892      7762.1957      3014.4706      10776.666      60725.815      87120        
    162400   162400         1013.2913      293.16951      7762.3006      2924.8852      10687.186      60733.807      87120        
    162500   162500         1013.8088      295.05572      7784.7848      2943.7034      10728.488      60876.668      87120        
    162600   162600         1014.3323      304.86054      7724.4552      3041.5239      10765.979      60639.161      87120        
    162700   162700         1014.8524      304.47386      7730.1752      3037.666       10767.841      60656.963      87120        
    162800   162800         1015.3905      293.95109      7799.2858      2932.6827      10731.969      60851.857      87120        
    162900   162900         1015.9174      299.86869      7769.9292      2991.7213      10761.651      60817.725      87120        
    163000   163000         1016.4465      310.37434      7787.8093      3096.5338      10884.343      60964.134      87120        
    163100   163100         1016.9745      308.10184      7786.6113      3073.8616      10860.473      60864.908      87120        
    163200   163200         1017.504       299.78516      7812.2101      2990.888       10803.098      61011.985      87120        
    163300   163300         1018.036       299.60856      7781.6603      2989.126       10770.786      60891.044      87120        
    163400   163400         1018.571       302.79665      7776.3146      3020.9329      10797.248      60869.765      87120        
    163500   163500         1019.1195      305.29114      7768.1303      3045.8199      10813.95       60883.552      87120        
    163600   163600         1019.6552      295.09029      7801.5186      2944.0483      10745.567      60872.115      87120        
    163700   163700         1020.1894      294.92811      7815.1676      2942.4303      10757.598      60982.651      87120        
    163800   163800         1020.7223      306.25485      7816.1105      3055.4346      10871.545      61093.356      87120        
    163900   163900         1021.2608      303.71032      7830.6256      3030.0484      10860.674      61057.746      87120        
    164000   164000         1021.8009      300.73147      7817.9032      3000.3291      10818.232      61010.898      87120        
    164100   164100         1022.3314      300.51019      7774.4358      2998.1214      10772.557      60826.696      87120        
    164200   164200         1022.8525      298.42787      7774.3881      2977.3465      10751.735      60824.269      87120        
    164300   164300         1023.3834      297.40459      7753.5974      2967.1376      10720.735      60752.879      87120        
    164400   164400         1023.9294      289.22719      7775.3721      2885.5535      10660.926      60844.352      87120        
    164500   164500         1024.4652      295.35916      7787.9953      2946.7308      10734.726      60941.87       87120        
    164600   164600         1024.9899      306.15185      7786.7093      3054.407       10841.116      60969.441      87120        
    164700   164700         1025.5241      303.02362      7794.1083      3023.1973      10817.306      61018.714      87120        
    164800   164800         1026.0575      297.71495      7808.7462      2970.2339      10778.98       61080.296      87120        
    164900   164900         1026.5908      300.28803      7777.8324      2995.9049      10773.737      61002.962      87120        
    165000   165000         1027.1224      299.2931       7818.896       2985.9788      10804.875      61079.221      87120        
    165100   165100         1027.6558      308.96999      7825.2342      3082.5229      10907.757      61105.639      87120        
    165200   165200         1028.1821      304.41726      7805.4859      3037.1013      10842.587      61012.17       87120        
    165300   165300         1028.6969      299.3641       7747.2798      2986.6872      10733.967      60774.371      87120        
    165400   165400         1029.2197      297.26032      7728.4775      2965.6983      10694.176      60544.832      87120        
    165500   165500         1029.7438      295.1019       7752.5499      2944.1642      10696.714      60684.025      87120        
    165600   165600         1030.2751      305.23798      7728.7626      3045.2895      10774.052      60695.605      87120        
    165700   165700         1030.7942      308.11692      7781.9087      3074.012       10855.921      60969.351      87120        
    165800   165800         1031.3279      300.81958      7783.3072      3001.2082      10784.515      60935.535      87120        
    165900   165900         1031.8614      297.64907      7781.1357      2969.5767      10750.712      60928.579      87120        
    166000   166000         1032.4002      299.89844      7759.1167      2992.0182      10751.135      60864.55       87120        
    166100   166100         1032.9313      302.06497      7734.9668      3013.6331      10748.6        60807.291      87120        
    166200   166200         1033.4759      299.36931      7769.0891      2986.7391      10755.828      60850.712      87120        
    166300   166300         1034.0122      304.52776      7756.7929      3038.2038      10794.997      60832.735      87120        
    166400   166400         1034.5438      298.45705      7750.5063      2977.6377      10728.144      60784.042      87120        
    166500   166500         1035.0818      297.89685      7688.664       2972.0488      10660.713      60597.579      87120        
    166600   166600         1035.6188      296.51634      7752.6593      2958.2757      10710.935      60783.428      87120        
    166700   166700         1036.1468      301.05982      7788.8756      3003.605       10792.481      60952.462      87120        
    166800   166800         1036.6814      302.07626      7766.5747      3013.7458      10780.321      60805.094      87120        
    166900   166900         1037.2171      296.46391      7765.3313      2957.7526      10723.084      60828.596      87120        
    167000   167000         1037.7464      299.12772      7736.8102      2984.3288      10721.139      60759.216      87120        
    167100   167100         1038.2687      294.23324      7791.2474      2935.4977      10726.745      60965.789      87120        
    167200   167200         1038.7917      304.26079      7755.5568      3035.5403      10791.097      60904.219      87120        
    167300   167300         1039.3236      308.04287      7787.1979      3073.2732      10860.471      61011.896      87120        
    167400   167400         1039.8492      300.73471      7762.9308      3000.3614      10763.292      60887.205      87120        
    167500   167500         1040.3803      295.95647      7752.606       2952.69        10705.296      60874.076      87120        
    167600   167600         1040.913       296.8711       7746.2858      2961.815       10708.101      60751.324      87120        
    167700   167700         1041.4477      300.15654      7739.7613      2994.5931      10734.354      60779.352      87120        
    167800   167800         1041.9792      302.79281      7762.4425      3020.8946      10783.337      60835.959      87120        
    167900   167900         1042.5289      303.67444      7748.292       3029.6904      10777.982      60800.948      87120        
    168000   168000         1043.072       298.51247      7671.6745      2978.1906      10649.865      60454.167      87120        
    168100   168100         1043.5998      290.78096      7740.4936      2901.0552      10641.549      60719.831      87120        
    168200   168200         1044.1263      301.66243      7731.1172      3009.6171      10740.734      60710.28       87120        
    168300   168300         1044.664       307.77652      7736.2326      3070.6159      10806.848      60828.872      87120        
    168400   168400         1045.213       301.26698      7750.2395      3005.6717      10755.911      60821.166      87120        
    168500   168500         1045.7496      297.81584      7754.709       2971.2405      10725.95       60820.363      87120        
    168600   168600         1046.2908      297.77904      7761.2192      2970.8734      10732.093      60881.827      87120        
    168700   168700         1046.8298      300.53165      7730.9178      2998.3355      10729.253      60746.91       87120        
    168800   168800         1047.3663      306.02427      7760.4366      3053.1341      10813.571      60882.078      87120        
    168900   168900         1047.9026      305.04114      7763.5704      3043.3257      10806.896      60852.827      87120        
    169000   169000         1048.4385      298.97263      7701.5525      2982.7816      10684.334      60630.709      87120        
    169100   169100         1048.958       295.19562      7744.606       2945.0992      10689.705      60752.835      87120        
    169200   169200         1049.4967      304.80514      7729.6036      3040.9711      10770.575      60796.631      87120        
    169300   169300         1050.036       305.54316      7718.2308      3048.3342      10766.565      60740.926      87120        
    169400   169400         1050.571       296.13146      7757.0791      2954.4358      10711.515      60818.355      87120        
    169500   169500         1051.0984      299.63398      7710.0531      2989.3797      10699.433      60735.412      87120        
    169600   169600         1051.6353      296.41444      7739.0819      2957.259       10696.341      60752.911      87120        
    169700   169700         1052.1732      310.2405       7702.533       3095.1985      10797.731      60678.913      87120        
    169800   169800         1052.7158      303.13743      7773.5585      3024.3328      10797.891      60944.936      87120        
    169900   169900         1053.252       299.27657      7723.2785      2985.8139      10709.092      60658.201      87120        
    170000   170000         1053.7936      298.27938      7692.0502      2975.8651      10667.915      60516.58       87120        
    170100   170100         1054.3185      294.99089      7750.9951      2943.0566      10694.052      60818.945      87120        
    170200   170200         1054.8491      297.58199      7784.6767      2968.9075      10753.584      60823.656      87120        
    170300   170300         1055.3817      307.07872      7753.9751      3063.6541      10817.629      60820.832      87120        
    170400   170400         1055.9289      310.61966      7744.7811      3098.9813      10843.762      60840.416      87120        
    170500   170500         1056.4558      297.26163      7766.7637      2965.7113      10732.475      60885.659      87120        
    170600   170600         1056.9935      300.27503      7682.8388      2995.7752      10678.614      60562.433      87120        
    170700   170700         1057.5344      298.24441      7703.4428      2975.5163      10678.959      60605.156      87120        
    170800   170800         1058.0793      303.11611      7693.9802      3024.1201      10718.1        60567.87       87120        
    170900   170900         1058.6242      305.78623      7682.7311      3050.7592      10733.49       60473.403      87120        
    171000   171000         1059.1809      301.20851      7623.4471      3005.0884      10628.535      60302.531      87120        
    171100   171100         1059.7187      294.66699      7666.0737      2939.8252      10605.899      60425.861      87120        
    171200   171200         1060.2628      299.38632      7702.7359      2986.9088      10689.645      60592.738      87120        
    171300   171300         1060.7988      302.26381      7725.6929      3015.6168      10741.31       60722.45       87120        
    171400   171400         1061.3391      300.17739      7716.279       2994.8011      10711.08       60651.662      87120        
    171500   171500         1061.879       288.2079       7725.2782      2875.3843      10600.662      60691.887      87120        
    171600   171600         1062.4172      299.74463      7659.4754      2990.4836      10649.959      60486.833      87120        
    171700   171700         1062.9532      300.0407       7680.4191      2993.4375      10673.857      60424.073      87120        
    171800   171800         1063.4928      301.17792      7683.7296      3004.7832      10688.513      60625.615      87120        
    171900   171900         1064.0334      303.14927      7658.8961      3024.4509      10683.347      60455.097      87120        
    172000   172000         1064.5776      294.61542      7631.8846      2939.3106      10571.195      60247.423      87120        
    172100   172100         1065.1171      297.55093      7615.383       2968.5975      10583.981      60249.087      87120        
    172200   172200         1065.6543      295.9486       7709.8219      2952.6115      10662.433      60577.426      87120        
    172300   172300         1066.1945      303.27588      7698.8714      3025.714       10724.585      60631.491      87120        
    172400   172400         1066.7303      301.14424      7701.9049      3004.4472      10706.352      60710.213      87120        
    172500   172500         1067.257       294.32774      7756.549       2936.4406      10692.99       60824.032      87120        
    172600   172600         1067.797       299.2381       7755.3631      2985.4301      10740.793      60887.864      87120        
    172700   172700         1068.3356      311.49926      7709.901       3107.7569      10817.658      60677.323      87120        
    172800   172800         1068.8677      307.10562      7715.1258      3063.9225      10779.048      60691.982      87120        
    172900   172900         1069.4135      297.98481      7688.1456      2972.9263      10661.072      60543.238      87120        
    173000   173000         1069.9564      301.27847      7635.4725      3005.7864      10641.259      60280.981      87120        
    173100   173100         1070.4936      299.69611      7679.0599      2989.9995      10669.059      60525.843      87120        
    173200   173200         1071.0325      304.88796      7692.0337      3041.7975      10733.831      60552.796      87120        
    173300   173300         1071.5736      302.02666      7691.2822      3013.2509      10704.533      60671.389      87120        
    173400   173400         1072.129       297.14154      7700.0726      2964.5132      10664.586      60666.383      87120        
    173500   173500         1072.6659      298.15057      7720.0793      2974.5801      10694.659      60701.029      87120        
    173600   173600         1073.2129      302.9098       7739.2451      3022.0618      10761.307      60840.126      87120        
    173700   173700         1073.7645      305.47254      7665.5045      3047.6296      10713.134      60478.663      87120        
    173800   173800         1074.3162      301.25555      7629.3726      3005.5577      10634.93       60358.895      87120        
    173900   173900         1074.8596      298.44135      7653.4262      2977.481       10630.907      60418.188      87120        
    174000   174000         1075.4124      308.63795      7602.9568      3079.2102      10682.167      60219.352      87120        
    174100   174100         1075.9668      296.55498      7710.7513      2958.6612      10669.413      60632.016      87120        
    174200   174200         1076.5109      298.71387      7635.0335      2980.1999      10615.233      60355.176      87120        
    174300   174300         1077.0718      292.85559      7627.0778      2921.7532      10548.831      60326.934      87120        
    174400   174400         1077.6305      292.61306      7654.4309      2919.3335      10573.764      60418.646      87120        
    174500   174500         1078.1928      301.05955      7712.0064      3003.6023      10715.609      60760.431      87120        
    174600   174600         1078.7595      301.90133      7722.426       3012.0005      10734.426      60682.307      87120        
    174700   174700         1079.3241      302.33791      7658.0867      3016.3561      10674.443      60497.303      87120        
    174800   174800         1079.8821      295.04164      7633.7825      2943.5629      10577.345      60315.768      87120        
    174900   174900         1080.4436      296.05408      7647.902       2953.6639      10601.566      60315.981      87120        
    175000   175000         1080.9864      303.96405      7648.3054      3032.5797      10680.885      60424.183      87120        
    175100   175100         1081.5367      302.14826      7659.5352      3014.464       10673.999      60416.08       87120        
    175200   175200         1082.0816      297.3562       7636.0587      2966.6548      10602.714      60389.67       87120        
    175300   175300         1082.622       289.7425       7647.1921      2890.6947      10537.887      60472.674      87120        
    175400   175400         1083.1559      295.76869      7680.829       2950.8166      10631.646      60560.398      87120        
    175500   175500         1083.6936      303.32634      7686.3293      3026.2175      10712.547      60610.104      87120        
    175600   175600         1084.2258      305.79082      7655.0788      3050.8051      10705.884      60454.232      87120        
    175700   175700         1084.7653      300.52521      7606.4874      2998.2713      10604.759      60229.82       87120        
    175800   175800         1085.3057      293.99104      7652.3574      2933.0813      10585.439      60361.239      87120        
    175900   175900         1085.8496      298.28822      7672.4547      2975.9533      10648.408      60470.795      87120        
    176000   176000         1086.3952      304.29508      7637.8263      3035.8824      10673.709      60349.507      87120        
    176100   176100         1086.9374      300.20745      7662.1179      2995.1011      10657.219      60448.139      87120        
    176200   176200         1087.4839      300.32906      7636.1241      2996.3143      10632.438      60371.317      87120        
    176300   176300         1088.0342      297.98823      7649.6835      2972.9604      10622.644      60461.611      87120        
    176400   176400         1088.5942      303.96475      7652.9245      3032.5868      10685.511      60465.629      87120        
    176500   176500         1089.1662      307.92765      7664.692       3072.1237      10736.816      60530.213      87120        
    176600   176600         1089.731       296.01939      7704.4263      2953.3177      10657.744      60644.759      87120        
    176700   176700         1090.3023      294.96519      7635.8096      2942.8002      10578.61       60402.737      87120        
    176800   176800         1090.8558      302.46436      7589.3351      3017.6177      10606.953      60261.564      87120        
    176900   176900         1091.4216      297.4602       7685.7055      2967.6924      10653.398      60546.786      87120        
    177000   177000         1091.9921      304.55122      7682.4892      3038.4378      10720.927      60579.652      87120        
    177100   177100         1092.551       301.89475      7726.0499      3011.9349      10737.985      60700.577      87120        
    177200   177200         1093.1048      300.32374      7671.882       2996.2613      10668.143      60535.42       87120        
    177300   177300         1093.6607      293.23997      7691.9404      2925.5881      10617.529      60649.231      87120        
    177400   177400         1094.2166      298.77134      7683.1997      2980.7733      10663.973      60594.04       87120        
    177500   177500         1094.7725      301.94308      7706.4687      3012.417       10718.886      60717.03       87120        
    177600   177600         1095.331       306.79279      7618.1313      3060.8015      10678.933      60346.373      87120        
    177700   177700         1095.8881      297.36353      7611.2758      2966.7279      10578.004      60205.086      87120        
    177800   177800         1096.4424      296.54668      7606.9024      2958.5784      10565.481      60194.438      87120        
    177900   177900         1096.9979      297.554        7643.8877      2968.6281      10612.516      60322.076      87120        
    178000   178000         1097.5491      303.97595      7625.7641      3032.6985      10658.463      60308.5        87120        
    178100   178100         1098.0959      302.17308      7667.5569      3014.7117      10682.269      60553.431      87120        
    178200   178200         1098.6437      298.80787      7699.7872      2981.1378      10680.925      60636.706      87120        
    178300   178300         1099.1823      297.54739      7714.6122      2968.5622      10683.174      60761.277      87120        
    178400   178400         1099.7337      301.07431      7706.9968      3003.7495      10710.746      60681.536      87120        
    178500   178500         1100.2947      304.81267      7676.6295      3041.0462      10717.676      60487.486      87120        
    178600   178600         1100.8445      298.21308      7619.1515      2975.2037      10594.355      60259.893      87120        
    178700   178700         1101.3943      295.83316      7601.3556      2951.4598      10552.815      60150.298      87120        
    178800   178800         1101.9491      301.52892      7608.9541      3008.285       10617.239      60264.384      87120        
    178900   178900         1102.5089      310.28912      7633.5349      3095.6836      10729.219      60369.191      87120        
    179000   179000         1103.067       306.04191      7682.6829      3053.3101      10735.993      60573.891      87120        
    179100   179100         1103.6162      293.42286      7720.2128      2927.4128      10647.626      60703.567      87120        
    179200   179200         1104.1675      296.11697      7704.576       2954.2913      10658.867      60657.239      87120        
    179300   179300         1104.7342      305.01524      7652.9479      3043.0673      10696.015      60470.469      87120        
    179400   179400         1105.2844      299.77872      7634.831       2990.8237      10625.655      60325.366      87120        
    179500   179500         1105.8472      296.12586      7576.1186      2954.3799      10530.499      60099.134      87120        
    179600   179600         1106.4118      291.91857      7571.2149      2912.4048      10483.62       60073.4        87120        
    179700   179700         1106.9779      301.2273       7562.4752      3005.2758      10567.751      60033.487      87120        
    179800   179800         1107.5237      304.83291      7651.0816      3041.2482      10692.33       60386.709      87120        
    179900   179900         1108.0848      308.38237      7642.971       3076.6604      10719.631      60411.265      87120        
    180000   180000         1108.6458      300.93282      7642.6629      3002.3379      10645.001      60424.561      87120        
    180100   180100         1109.1961      296.24339      7664.9134      2955.5526      10620.466      60547.022      87120        
    180200   180200         1109.7556      295.42222      7692.4117      2947.3599      10639.772      60596.418      87120        
    180300   180300         1110.3044      302.03122      7646.8182      3013.2964      10660.115      60353.165      87120        
    180400   180400         1110.866       304.96999      7586.2239      3042.6158      10628.84       60137.271      87120        
    180500   180500         1111.4249      292.62174      7586.3973      2919.4201      10505.817      60153.509      87120        
    180600   180600         1111.9905      295.81011      7577.815       2951.2298      10529.045      60063.952      87120        
    180700   180700         1112.5565      299.9311       7640.781       2992.3439      10633.125      60365.58       87120        
    180800   180800         1113.1127      304.12983      7634.3723      3034.2338      10668.606      60333.848      87120        
    180900   180900         1113.6662      303.81151      7613.1136      3031.058       10644.172      60281.756      87120        
    181000   181000         1114.2283      299.98663      7600.9808      2992.898       10593.879      60311.954      87120        
    181100   181100         1114.7843      297.5796       7630.3864      2968.8836      10599.27       60407.207      87120        
    181200   181200         1115.3293      307.21748      7659.8871      3065.0385      10724.926      60474.589      87120        
    181300   181300         1115.8869      305.02778      7627.8678      3043.1924      10671.06       60383.649      87120        
    181400   181400         1116.4343      293.51009      7642.4374      2928.283       10570.72       60389.71       87120        
    181500   181500         1116.9934      291.65329      7690.5561      2909.7581      10600.314      60575.292      87120        
    181600   181600         1117.5491      302.70855      7641.6767      3020.054       10661.731      60382.193      87120        
    181700   181700         1118.1074      301.699        7652.8829      3009.9819      10662.865      60385.934      87120        
    181800   181800         1118.6684      302.34517      7645.8031      3016.4286      10662.232      60404.497      87120        
    181900   181900         1119.2319      295.62283      7679.3775      2949.3614      10628.739      60482.307      87120        
    182000   182000         1119.7972      291.91224      7657.1334      2912.3417      10569.475      60416.814      87120        
    182100   182100         1120.3598      296.74238      7634.5123      2960.5308      10595.043      60365.969      87120        
    182200   182200         1120.9097      304.6189       7667.3567      3039.113       10706.47       60565.151      87120        
    182300   182300         1121.4682      306.17267      7689.2402      3054.6146      10743.855      60599.091      87120        
    182400   182400         1122.0197      299.14346      7608.0862      2984.4859      10592.572      60280.093      87120        
    182500   182500         1122.5773      294.58897      7603.3916      2939.0467      10542.438      60210.85       87120        
    182600   182600         1123.1403      302.68374      7574.0028      3019.8065      10593.809      60175.554      87120        
    182700   182700         1123.7074      304.01648      7602.0595      3033.1029      10635.162      60275.338      87120        
    182800   182800         1124.2622      301.02676      7610.0034      3003.2751      10613.278      60216.894      87120        
    182900   182900         1124.8223      296.29782      7617.3662      2956.0956      10573.462      60283.658      87120        
    183000   183000         1125.3937      294.7067       7602.7614      2940.2213      10542.983      60219.113      87120        
    183100   183100         1125.9478      297.67393      7645.1766      2969.8247      10615.001      60360.069      87120        
    183200   183200         1126.5115      304.48429      7656.9164      3037.7701      10694.686      60470.623      87120        
    183300   183300         1127.0746      299.57897      7695.0644      2988.8309      10683.895      60502.681      87120        
    183400   183400         1127.6373      300.22491      7638.2424      2995.2753      10633.518      60371.289      87120        
    183500   183500         1128.1968      294.23971      7653.8302      2935.5623      10589.392      60469.292      87120        
    183600   183600         1128.7487      305.05709      7620.9855      3043.4848      10664.47       60311.77       87120        
    183700   183700         1129.313       309.773        7636.5313      3090.5344      10727.066      60435.316      87120        
    183800   183800         1129.8746      301.84855      7638.4987      3011.4739      10649.973      60365.104      87120        
    183900   183900         1130.4358      300.80545      7607.8664      3001.0671      10608.934      60158.331      87120        
    184000   184000         1130.9971      298.1306       7639.4535      2974.3808      10613.834      60425.44       87120        
    184100   184100         1131.5421      300.86153      7632.0002      3001.6267      10633.627      60302.675      87120        
    184200   184200         1132.099       299.3731       7633.1494      2986.7769      10619.926      60324.5        87120        
    184300   184300         1132.6577      292.41657      7607.1477      2917.3733      10524.521      60292.982      87120        
    184400   184400         1133.2177      290.93185      7607.6902      2902.5605      10510.251      60203.21       87120        
    184500   184500         1133.7759      301.34676      7636.465       3006.4677      10642.933      60433.262      87120        
    184600   184600         1134.338       300.36834      7671.3186      2996.7062      10668.025      60528.037      87120        
    184700   184700         1134.9107      299.62208      7653.5346      2989.2609      10642.796      60313.684      87120        
    184800   184800         1135.4784      293.88808      7665.156       2932.0542      10597.21       60476.076      87120        
    184900   184900         1136.0487      301.76181      7620.4853      3010.6086      10631.094      60334.816      87120        
    185000   185000         1136.6243      311.20201      7584.617       3104.7913      10689.408      60217.326      87120        
    185100   185100         1137.2         300.56606      7650.5579      2998.6788      10649.237      60468.754      87120        
    185200   185200         1137.7611      298.30376      7603.3516      2976.1084      10579.46       60240.629      87120        
    185300   185300         1138.3206      297.56592      7587.6769      2968.7471      10556.424      60225.886      87120        
    185400   185400         1138.8855      303.06392      7613.1145      3023.5994      10636.714      60279.494      87120        
    185500   185500         1139.4462      303.4257       7660.542       3027.2088      10687.751      60418.479      87120        
    185600   185600         1140.0052      299.82375      7631.4983      2991.2729      10622.771      60365.305      87120        
    185700   185700         1140.5653      294.34067      7635.6209      2936.5695      10572.19       60285.331      87120        
    185800   185800         1141.1317      293.54094      7656.5367      2928.5908      10585.128      60382.02       87120        
    185900   185900         1141.6941      296.00521      7676.9847      2953.1763      10630.161      60463.828      87120        
    186000   186000         1142.2564      299.61826      7656.4094      2989.2229      10645.632      60384.079      87120        
    186100   186100         1142.8106      304.89358      7598.468       3041.8535      10640.322      60315.095      87120        
    186200   186200         1143.3632      293.97299      7644.9653      2932.9012      10577.867      60354.689      87120        
    186300   186300         1143.9192      299.56358      7596.5716      2988.6774      10585.249      60185.815      87120        
    186400   186400         1144.4736      301.30926      7604.5719      3006.0935      10610.665      60306.188      87120        
    186500   186500         1145.032       301.43873      7633.4116      3007.3852      10640.797      60367.983      87120        
    186600   186600         1145.5933      297.87556      7688.788       2971.8363      10660.624      60622.346      87120        
    186700   186700         1146.1581      299.82845      7693.0335      2991.3199      10684.353      60612.723      87120        
    186800   186800         1146.7135      300.91283      7667.2521      3002.1384      10669.391      60438.538      87120        
    186900   186900         1147.2752      299.82218      7615.827       2991.2573      10607.084      60305.47       87120        
    187000   187000         1147.8412      290.51338      7652.6373      2898.3855      10551.023      60340.945      87120        
    187100   187100         1148.4036      302.77774      7620.767       3020.7443      10641.511      60302.041      87120        
    187200   187200         1148.9712      303.11154      7656.7565      3024.0745      10680.831      60455.044      87120        
    187300   187300         1149.5373      300.38749      7659.4225      2996.8973      10656.32       60436.151      87120        
    187400   187400         1150.1029      293.58972      7687.5685      2929.0775      10616.646      60612.3        87120        
    187500   187500         1150.6728      302.09789      7670.491       3013.9616      10684.453      60543.358      87120        
    187600   187600         1151.2525      303.48975      7694.0879      3027.8478      10721.936      60617.86       87120        
    187700   187700         1151.8421      297.58356      7636.0368      2968.9231      10604.96       60383.439      87120        
    187800   187800         1152.4226      289.77087      7652.2368      2890.9776      10543.214      60339.187      87120        
    187900   187900         1152.9869      299.08436      7639.0972      2983.8963      10622.993      60435.738      87120        
    188000   188000         1153.5643      302.56145      7664.0505      3018.5864      10682.637      60491.513      87120        
    188100   188100         1154.1338      299.70602      7658.9666      2990.0984      10649.065      60379.322      87120        
    188200   188200         1154.7023      294.02033      7653.219       2933.3736      10586.593      60453.613      87120        
    188300   188300         1155.275       295.38542      7666.0177      2946.9928      10613.011      60466.303      87120        
    188400   188400         1155.8482      302.12416      7666.9284      3014.2236      10681.152      60553.694      87120        
    188500   188500         1156.4216      304.70856      7684.5447      3040.0076      10724.552      60588.309      87120        
    188600   188600         1156.9926      301.00884      7702.2346      3003.0964      10705.331      60599.39       87120        
    188700   188700         1157.5564      302.21599      7618.8634      3015.1398      10634.003      60274.386      87120        
    188800   188800         1158.1194      291.53184      7690.5323      2908.5465      10599.079      60459.087      87120        
    188900   188900         1158.6879      301.92401      7684.0272      3012.2267      10696.254      60565.829      87120        
    189000   189000         1159.2606      302.36606      7684.3842      3016.6371      10701.021      60519.277      87120        
    189100   189100         1159.8305      299.07085      7678.2552      2983.7615      10662.017      60505.639      87120        
    189200   189200         1160.3871      298.50919      7665.2632      2978.1579      10643.421      60515.019      87120        
    189300   189300         1160.9619      298.86519      7661.9371      2981.7097      10643.647      60473.969      87120        
    189400   189400         1161.5441      302.259        7662.5859      3015.5689      10678.155      60473.637      87120        
    189500   189500         1162.131       308.2262       7684.0638      3075.1023      10759.166      60599.868      87120        
    189600   189600         1162.7139      300.33142      7663.9872      2996.3379      10660.325      60460.491      87120        
    189700   189700         1163.2915      299.24817      7598.3329      2985.5306      10583.863      60196.011      87120        
    189800   189800         1163.8833      300.67898      7569.7783      2999.8054      10569.584      60065.507      87120        
    189900   189900         1164.4788      297.72845      7609.2146      2970.3686      10579.583      60281.457      87120        
    190000   190000         1165.0731      296.71612      7647.7075      2960.2689      10607.976      60414.455      87120        
    190100   190100         1165.6611      303.51015      7688.9696      3028.0513      10717.021      60604.023      87120        
    190200   190200         1166.2448      307.65837      7671.0126      3069.4372      10740.45       60592.631      87120        
    190300   190300         1166.8321      295.38672      7685.9169      2947.0058      10632.923      60592.934      87120        
    190400   190400         1167.4187      297.06817      7655.8707      2963.7812      10619.652      60457.489      87120        
    190500   190500         1168.0008      299.51827      7625.2579      2988.2253      10613.483      60281.239      87120        
    190600   190600         1168.5801      305.46942      7555.6758      3047.5985      10603.274      60013.076      87120        
    190700   190700         1169.1597      293.99766      7605.7315      2933.1474      10538.879      60135.115      87120        
    190800   190800         1169.7465      289.17377      7581.6053      2885.0206      10466.626      60053.575      87120        
    190900   190900         1170.3218      295.69819      7619.7901      2950.1132      10569.903      60300.194      87120        
    191000   191000         1170.897       305.10298      7649.8465      3043.9426      10693.789      60460.884      87120        
    191100   191100         1171.4674      300.8585       7708.5049      3001.5965      10710.101      60652.357      87120        
    191200   191200         1172.0286      295.54886      7720.2151      2948.6234      10668.839      60654.289      87120        
    191300   191300         1172.5915      293.90329      7667.4622      2932.2058      10599.668      60480.566      87120        
    191400   191400         1173.1535      292.78732      7605.0802      2921.0721      10526.152      60275.772      87120        
    191500   191500         1173.7252      297.71629      7613.0825      2970.2473      10583.33       60276.963      87120        
    191600   191600         1174.308       299.25036      7663.9953      2985.5524      10649.548      60444.376      87120        
    191700   191700         1174.8836      306.10182      7593.8065      3053.9079      10647.714      60268.5        87120        
    191800   191800         1175.4665      298.55993      7634.1646      2978.6641      10612.829      60338.146      87120        
    191900   191900         1176.0562      295.54958      7643.0669      2948.6306      10591.697      60393.271      87120        
    192000   192000         1176.6611      304.28506      7650.0732      3035.7825      10685.856      60444.923      87120        
    192100   192100         1177.2465      307.41475      7651.3532      3067.0067      10718.36       60417.626      87120        
    192200   192200         1177.8299      302.3616       7631.3754      3016.5925      10647.968      60396.529      87120        
    192300   192300         1178.4147      293.33676      7697.332       2926.5538      10623.886      60593.269      87120        
    192400   192400         1178.9967      301.24634      7639.4403      3005.4658      10644.906      60367.319      87120        
    192500   192500         1179.5743      306.0311       7649.8546      3053.2023      10703.057      60471.82       87120        
    192600   192600         1180.15        307.77283      7604.7602      3070.5791      10675.339      60296.93       87120        
    192700   192700         1180.7251      291.53567      7655.0189      2908.5846      10563.604      60450.793      87120        
    192800   192800         1181.2959      299.39191      7629.0081      2986.9646      10615.973      60384.379      87120        
    192900   192900         1181.8643      304.79705      7612.4171      3040.8904      10653.308      60304.51       87120        
    193000   193000         1182.4484      304.74489      7601.0994      3040.37        10641.469      60269.839      87120        
    193100   193100         1183.0132      292.56225      7680.2726      2918.8266      10599.099      60490.88       87120        
    193200   193200         1183.5885      294.62813      7666.2616      2939.4374      10605.699      60510.68       87120        
    193300   193300         1184.168       304.27802      7692.191       3035.7122      10727.903      60604.081      87120        
    193400   193400         1184.7585      303.03904      7672.4446      3023.3511      10695.796      60518.762      87120        
    193500   193500         1185.3453      298.68886      7654.3947      2979.9504      10634.345      60438.216      87120        
    193600   193600         1185.9332      301.45408      7603.6698      3007.5384      10611.208      60259.004      87120        
    193700   193700         1186.5173      296.67832      7634.0251      2959.8917      10593.917      60388.259      87120        
    193800   193800         1187.0923      296.41788      7656.0985      2957.2934      10613.392      60470.036      87120        
    193900   193900         1187.6748      305.53148      7657.6222      3048.2177      10705.84       60528.256      87120        
    194000   194000         1188.2711      305.82381      7662.3347      3051.1342      10713.469      60532.433      87120        
    194100   194100         1188.8535      296.88054      7669.3934      2961.9093      10631.303      60515.753      87120        
    194200   194200         1189.4377      295.81794      7658.9253      2951.3079      10610.233      60495.241      87120        
    194300   194300         1190.0199      297.51494      7667.9053      2968.2385      10636.144      60520.074      87120        
    194400   194400         1190.5995      306.48372      7691.4707      3057.718       10749.189      60634.585      87120        
    194500   194500         1191.1792      306.87602      7705.9061      3061.6318      10767.538      60704.782      87120        
    194600   194600         1191.7603      300.48031      7651.3152      2997.8234      10649.139      60429.992      87120        
    194700   194700         1192.3486      301.54317      7624.1637      3008.4272      10632.591      60354.334      87120        
    194800   194800         1192.9357      305.29535      7578.5174      3045.8619      10624.379      60157.934      87120        
    194900   194900         1193.526       294.45166      7625.5448      2937.6768      10563.222      60286.774      87120        
    195000   195000         1194.1174      298.43841      7625.9977      2977.4517      10603.449      60317.564      87120        
    195100   195100         1194.6965      306.11819      7677.0449      3054.0711      10731.116      60595.703      87120        
    195200   195200         1195.2734      312.62049      7634.9048      3118.9431      10753.848      60462.442      87120        
    195300   195300         1195.8475      299.89563      7648.3221      2991.9901      10640.312      60480.067      87120        
    195400   195400         1196.4267      298.49621      7661.3346      2978.0284      10639.363      60505.479      87120        
    195500   195500         1197.0091      301.39707      7643.1943      3006.9696      10650.164      60419.02       87120        
    195600   195600         1197.5981      301.25356      7656.6902      3005.5379      10662.228      60462.526      87120        
    195700   195700         1198.1769      302.95066      7628.8084      3022.4694      10651.278      60355.706      87120        
    195800   195800         1198.7547      300.19051      7615.6184      2994.932       10610.55       60236.36       87120        
    195900   195900         1199.3326      294.27762      7623.6981      2935.9405      10559.639      60272.309      87120        
    196000   196000         1199.9247      298.82351      7604.1574      2981.2938      10585.451      60205.362      87120        
    196100   196100         1200.5078      307.55319      7634.4213      3068.3878      10702.809      60374.185      87120        
    196200   196200         1201.0858      304.35547      7680.9343      3036.4849      10717.419      60563.886      87120        
    196300   196300         1201.6659      298.86858      7685.8205      2981.7434      10667.564      60609.1        87120        
    196400   196400         1202.2595      299.06943      7671.8701      2983.7473      10655.617      60523.34       87120        
    196500   196500         1202.8482      298.7309       7687.2106      2980.3699      10667.58       60574.296      87120        
    196600   196600         1203.4478      303.36556      7674.4607      3026.6088      10701.069      60486.317      87120        
    196700   196700         1204.0386      298.93326      7664.9118      2982.3888      10647.301      60519.567      87120        
    196800   196800         1204.6294      290.62205      7673.1202      2899.4697      10572.59       60522.13       87120        
    196900   196900         1205.2181      296.05016      7640.8954      2953.6247      10594.52       60361.527      87120        
    197000   197000         1205.8103      303.32036      7651.6145      3026.1579      10677.772      60450.744      87120        
    197100   197100         1206.399       295.87218      7722.9736      2951.849       10674.823      60600.986      87120        
    197200   197200         1206.9806      303.66612      7654.8477      3029.6074      10684.455      60462.689      87120        
    197300   197300         1207.5707      302.34875      7599.0102      3016.4644      10615.475      60190.024      87120        
    197400   197400         1208.155       294.5437       7660.5421      2938.5951      10599.137      60420.451      87120        
    197500   197500         1208.7544      298.89605      7689.2524      2982.0176      10671.27       60585.319      87120        
    197600   197600         1209.3493      301.61064      7714.9666      3009.1004      10724.067      60715.602      87120        
    197700   197700         1209.9269      298.43456      7732.1365      2977.4134      10709.55       60730.924      87120        
    197800   197800         1210.5165      296.59341      7640.9897      2959.0446      10600.034      60404.989      87120        
    197900   197900         1211.0968      293.30677      7607.6417      2926.2545      10533.896      60179          87120        
    198000   198000         1211.6755      297.7539       7617.126       2970.6225      10587.749      60268.027      87120        
    198100   198100         1212.2514      302.14553      7613.925       3014.4368      10628.362      60241.123      87120        
    198200   198200         1212.8336      301.68342      7603.6757      3009.8264      10613.502      60157.308      87120        
    198300   198300         1213.4327      296.16452      7612.9791      2954.7656      10567.745      60269.205      87120        
    198400   198400         1214.0313      297.22434      7648.3317      2965.3393      10613.671      60394.662      87120        
    198500   198500         1214.6161      299.59377      7711.8615      2988.9785      10700.84       60672.957      87120        
    198600   198600         1215.217       298.68187      7754.9673      2979.8807      10734.848      60867.467      87120        
    198700   198700         1215.8198      300.88156      7714.4719      3001.8265      10716.298      60646.967      87120        
    198800   198800         1216.4169      300.42815      7657.397       2997.3029      10654.7        60485.686      87120        
    198900   198900         1217.0176      297.4375       7605.8141      2967.4659      10573.28       60233.732      87120        
    199000   199000         1217.6116      294.63722      7627.5861      2939.5282      10567.114      60263.371      87120        
    199100   199100         1218.2046      304.43183      7621.2726      3037.2467      10658.519      60342.642      87120        
    199200   199200         1218.8016      304.40706      7643.0306      3036.9996      10680.03       60415.603      87120        
    199300   199300         1219.3964      295.72903      7636.761       2950.4209      10587.182      60479.587      87120        
    199400   199400         1219.9897      297.05319      7623.1996      2963.6318      10586.831      60403.394      87120        
    199500   199500         1220.5863      298.67776      7650.2098      2979.8397      10630.05       60443.877      87120        
    199600   199600         1221.1718      301.45929      7667.3081      3007.5904      10674.898      60585.09       87120        
    199700   199700         1221.7521      306.23556      7626.1016      3055.2421      10681.344      60366.174      87120        
    199800   199800         1222.3374      300.98505      7621.7437      3002.859       10624.603      60385.112      87120        
    199900   199900         1222.9293      286.5568       7644.7599      2858.9116      10503.672      60381.456      87120        
    200000   200000         1223.5211      291.71277      7651.4947      2910.3516      10561.846      60392.237      87120        
    200100   200100         1224.0965      300.25125      7634.5294      2995.5381      10630.067      60423.626      87120        
    200200   200200         1224.6746      299.96709      7672.8955      2992.703       10665.599      60535.19       87120        
    200300   200300         1225.2579      300.57826      7666.0741      2998.8005      10664.875      60517.26       87120        
    200400   200400         1225.8513      300.45235      7654.8101      2997.5443      10652.354      60489.207      87120        
    200500   200500         1226.436       297.35828      7628.2268      2966.6755      10594.902      60320.435      87120        
    200600   200600         1227.0299      296.82361      7627.8325      2961.3413      10589.174      60358.732      87120        
    200700   200700         1227.6037      301.59091      7675.6055      3008.9035      10684.509      60585.55       87120        
    200800   200800         1228.1926      304.10177      7678.4316      3033.9538      10712.385      60538.141      87120        
    200900   200900         1228.7977      297.28169      7682.4238      2965.9114      10648.335      60599.853      87120        
    201000   201000         1229.3905      298.75136      7636.4179      2980.574       10616.992      60395.62       87120        
    201100   201100         1229.9656      299.51263      7640.861       2988.169       10629.03       60484.962      87120        
    201200   201200         1230.5524      300.09072      7684.8347      2993.9364      10678.771      60589.64       87120        
    201300   201300         1231.1523      305.03448      7641.5121      3043.2592      10684.771      60410.036      87120        
    201400   201400         1231.745       292.2652       7683.1384      2915.8631      10599.001      60535.856      87120        
    201500   201500         1232.3422      297.7712       7628.3403      2970.7951      10599.135      60342.376      87120        
    201600   201600         1232.9561      299.66252      7644.1861      2989.6644      10633.851      60404.311      87120        
    201700   201700         1233.5623      301.20259      7658.4859      3005.0293      10663.515      60528.156      87120        
    201800   201800         1234.1541      298.05248      7727.6612      2973.6014      10701.263      60801.025      87120        
    201900   201900         1234.7605      306.02175      7704.893       3053.109       10758.002      60712.76       87120        
    202000   202000         1235.3684      307.06569      7653.4644      3063.5241      10716.989      60506.548      87120        
    202100   202100         1235.9521      295.61925      7656.0564      2949.3256      10605.382      60523.283      87120        
    202200   202200         1236.5398      295.79316      7653.663       2951.0607      10604.724      60509.499      87120        
    202300   202300         1237.1254      302.60719      7657.6747      3019.0427      10676.717      60497.67       87120        
    202400   202400         1237.7208      301.82819      7662.3486      3011.2708      10673.619      60477.503      87120        
    202500   202500         1238.3156      294.74952      7744.0617      2940.6485      10684.71       60849.996      87120        
    202600   202600         1238.9092      297.19312      7733.4903      2965.0278      10698.518      60816.091      87120        
    202700   202700         1239.4903      303.19886      7678.3532      3024.9457      10703.299      60552.687      87120        
    202800   202800         1240.0831      302.40256      7660.3918      3017.0011      10677.393      60601.543      87120        
    202900   202900         1240.6767      296.33719      7702.6822      2956.4883      10659.171      60683.618      87120        
    203000   203000         1241.2742      303.73352      7642.792       3030.2799      10673.072      60441.575      87120        
    203100   203100         1241.8838      305.86664      7690.2618      3051.5615      10741.823      60745.637      87120        
    203200   203200         1242.4945      303.45637      7691.1333      3027.5148      10718.648      60678.945      87120        
    203300   203300         1243.0888      301.38066      7602.2381      3006.8059      10609.044      60310.242      87120        
    203400   203400         1243.6856      294.30086      7644.5324      2936.1724      10580.705      60509.42       87120        
    203500   203500         1244.2951      295.30178      7693.0125      2946.1583      10639.171      60609.905      87120        
    203600   203600         1244.8945      308.05091      7611.4766      3073.3534      10684.83       60329.523      87120        
    203700   203700         1245.5049      295.62201      7706.7628      2949.3532      10656.116      60694.481      87120        
    203800   203800         1246.1014      299.33042      7679.8825      2986.3511      10666.234      60625.396      87120        
    203900   203900         1246.6988      298.86188      7707.1075      2981.6766      10688.784      60681.386      87120        
    204000   204000         1247.295       301.35151      7729.9606      3006.515       10736.476      60778.758      87120        
    204100   204100         1247.8872      309.763        7687.9949      3090.4346      10778.43       60618.613      87120        
    204200   204200         1248.477       302.28292      7655.0535      3015.8075      10670.861      60448.076      87120        
    204300   204300         1249.0713      296.15139      7608.7794      2954.6347      10563.414      60285.808      87120        
    204400   204400         1249.6612      297.49796      7611.0028      2968.0691      10579.072      60345.069      87120        
    204500   204500         1250.2527      303.58849      7637.03        3028.8329      10665.863      60443.386      87120        
    204600   204600         1250.843       304.9404       7659.6828      3042.3207      10702.003      60550.954      87120        
    204700   204700         1251.4279      298.22943      7731.7603      2975.3668      10707.127      60890.772      87120        
    204800   204800         1252.0207      294.92441      7705.3146      2942.3934      10647.708      60739.857      87120        
    204900   204900         1252.6167      286.07372      7682.5142      2854.0921      10536.606      60633.123      87120        
    205000   205000         1253.2121      291.25618      7704.3952      2905.7963      10610.191      60658.352      87120        
    205100   205100         1253.7956      299.59129      7669.4723      2988.9538      10658.426      60524.267      87120        
    205200   205200         1254.3781      302.81685      7667.179       3021.1344      10688.313      60561.456      87120        
    205300   205300         1254.9649      301.33562      7659.4825      3006.3565      10665.839      60479.315      87120        
    205400   205400         1255.5569      298.05838      7610.4921      2973.6603      10584.152      60340.204      87120        
    205500   205500         1256.1653      296.99812      7636.8777      2963.0823      10599.96       60453.485      87120        
    205600   205600         1256.7654      302.50181      7678.0706      3017.9914      10696.062      60608.131      87120        
    205700   205700         1257.3655      305.62314      7673.0009      3049.1322      10722.133      60692.112      87120        
    205800   205800         1257.9683      297.02838      7754.3111      2963.3842      10717.695      60934.582      87120        
    205900   205900         1258.5773      297.1554       7745.4117      2964.6514      10710.063      60838.529      87120        
    206000   206000         1259.1877      306.04902      7652.6289      3053.3811      10706.01       60488.325      87120        
    206100   206100         1259.7904      302.32458      7640.9068      3016.2232      10657.13       60349.757      87120        
    206200   206200         1260.3924      295.93356      7632.8653      2952.4615      10585.327      60376.168      87120        
    206300   206300         1260.9972      296.177        7623.2191      2954.8901      10578.109      60290.598      87120        
    206400   206400         1261.586       304.61228      7657.0922      3039.0471      10696.139      60470.791      87120        
    206500   206500         1262.1943      301.35227      7710.4347      3006.5226      10716.957      60645.16       87120        
    206600   206600         1262.7904      300.31808      7700.6201      2996.2048      10696.825      60670.839      87120        
    206700   206700         1263.3889      303.83176      7666.2036      3031.26        10697.464      60609.169      87120        
    206800   206800         1263.982       300.55496      7691.0193      2998.5681      10689.587      60662.731      87120        
    206900   206900         1264.577       297.22509      7708.8795      2965.3468      10674.226      60706.315      87120        
    207000   207000         1265.1841      300.4532       7677.2839      2997.5528      10674.837      60670.81       87120        
    207100   207100         1265.7664      305.71041      7684.1624      3050.0028      10734.165      60667.707      87120        
    207200   207200         1266.3486      304.42219      7698.1595      3037.1506      10735.31       60694.238      87120        
    207300   207300         1266.9343      303.55902      7647.389       3028.5389      10675.928      60534.836      87120        
    207400   207400         1267.5206      293.0192       7676.6562      2923.3856      10600.042      60515.647      87120        
    207500   207500         1268.1105      300.34528      7645.2745      2996.4761      10641.751      60461.158      87120        
    207600   207600         1268.7131      297.64336      7729.692       2969.5198      10699.212      60807.894      87120        
    207700   207700         1269.3127      306.88052      7712.2314      3061.6767      10773.908      60769.452      87120        
    207800   207800         1269.918       298.87146      7674.7535      2981.7722      10656.526      60600.86       87120        
    207900   207900         1270.5311      293.71635      7699.0433      2930.3408      10629.384      60652.746      87120        
    208000   208000         1271.1436      304.47866      7667.0404      3037.714       10704.754      60618.896      87120        
    208100   208100         1271.7524      302.36051      7692.9208      3016.5817      10709.502      60675.208      87120        
    208200   208200         1272.3606      294.30367      7703.0445      2936.2004      10639.245      60630.16       87120        
    208300   208300         1272.9691      299.56424      7620.5394      2988.6839      10609.223      60301.144      87120        
    208400   208400         1273.5697      299.4127       7619.6969      2987.172       10606.869      60360.817      87120        
    208500   208500         1274.1733      297.65744      7665.6071      2969.6602      10635.267      60546.694      87120        
    208600   208600         1274.7916      304.85581      7687.8338      3041.4767      10729.31       60659.097      87120        
    208700   208700         1275.3959      300.97517      7745.5118      3002.7604      10748.272      60893.818      87120        
    208800   208800         1276.0024      296.77802      7705.7252      2960.8865      10666.612      60752.008      87120        
    208900   208900         1276.5974      295.86015      7693.2899      2951.729       10645.019      60729.615      87120        
    209000   209000         1277.1959      300.0481       7675.6124      2993.5112      10669.124      60670.962      87120        
    209100   209100         1277.7895      304.00452      7636.2018      3032.9835      10669.185      60508.656      87120        
    209200   209200         1278.3805      300.04256      7673.9754      2993.456       10667.431      60558.312      87120        
    209300   209300         1278.982       308.09469      7638.8731      3073.7902      10712.663      60485.018      87120        
    209400   209400         1279.577       304.12032      7655.3728      3034.1388      10689.512      60546.308      87120        
    209500   209500         1280.1887      294.60483      7694.317       2939.205       10633.522      60678.458      87120        
    209600   209600         1280.7941      301.80005      7667.7236      3010.99        10678.714      60554.439      87120        
    209700   209700         1281.4002      301.63646      7704.5982      3009.358       10713.956      60689.038      87120        
    209800   209800         1282.0074      294.88908      7741.8009      2942.0409      10683.842      60830.26       87120        
    209900   209900         1282.6315      300.93105      7686.3571      3002.3203      10688.677      60679.874      87120        
    210000   210000         1283.2559      296.06312      7686.4343      2953.754       10640.188      60645.198      87120        
    210100   210100         1283.8642      292.02225      7733.0689      2913.4392      10646.508      60858.605      87120        
    210200   210200         1284.4877      305.86376      7671.8682      3051.5327      10723.401      60676.078      87120        
    210300   210300         1285.1162      301.66175      7697.3947      3009.6102      10707.005      60762.93       87120        
    210400   210400         1285.7403      291.61063      7739.3955      2909.3325      10648.728      60953.958      87120        
    210500   210500         1286.3526      293.73013      7721.2483      2930.4783      10651.727      60865.719      87120        
    210600   210600         1286.9737      299.28036      7747.1152      2985.8517      10732.967      60978.033      87120        
    210700   210700         1287.5926      300.19551      7735.7177      2994.9819      10730.7        60893.515      87120        
    210800   210800         1288.1999      300.14718      7693.5894      2994.4997      10688.089      60726.82       87120        
    210900   210900         1288.8144      296.02612      7689.631       2953.3849      10643.016      60745.392      87120        
    211000   211000         1289.4324      293.79266      7737.0843      2931.1021      10668.186      60905.045      87120        
    211100   211100         1290.0428      304.98929      7714.0161      3042.8084      10756.824      60824.083      87120        
    211200   211200         1290.6396      302.92949      7706.7989      3022.2582      10729.057      60828.82       87120        
    211300   211300         1291.2443      302.04157      7663.3804      3013.3996      10676.78       60623.419      87120        
    211400   211400         1291.8537      298.81065      7668.6443      2981.1655      10649.81       60683.697      87120        
    211500   211500         1292.4523      294.16829      7709.2846      2934.8498      10644.134      60799.006      87120        
    211600   211600         1293.0519      301.00255      7725.4427      3003.0335      10728.476      60867.265      87120        
    211700   211700         1293.6609      307.28615      7720.3195      3065.7236      10786.043      60882.732      87120        
    211800   211800         1294.2677      299.90681      7706.2848      2992.1016      10698.386      60711.261      87120        
    211900   211900         1294.887       295.65913      7676.611       2949.7235      10626.334      60603.336      87120        
    212000   212000         1295.5005      295.54252      7678.5363      2948.5601      10627.096      60621.588      87120        
    212100   212100         1296.1037      306.07991      7708.2764      3053.6893      10761.966      60793.334      87120        
    212200   212200         1296.719       305.69835      7756.8306      3049.8825      10806.713      61002.557      87120        
    212300   212300         1297.3248      298.56592      7803.0575      2978.7239      10781.781      61152.407      87120        
    212400   212400         1297.9402      302.9274       7714.3378      3022.2374      10736.575      60893.538      87120        
    212500   212500         1298.5455      296.3619       7701.3356      2956.7349      10658.07       60814.537      87120        
    212600   212600         1299.1648      299.46895      7677.03        2987.7332      10664.763      60636.576      87120        
    212700   212700         1299.7819      301.54053      7711.875       3008.4009      10720.276      60788.693      87120        
    212800   212800         1300.3878      308.61501      7634.3527      3078.9814      10713.334      60508.149      87120        
    212900   212900         1300.9911      300.67517      7669.8296      2999.7674      10669.597      60611.001      87120        
    213000   213000         1301.611       302.43757      7625.8417      3017.3505      10643.192      60552.73       87120        
    213100   213100         1302.2231      299.9754       7652.2752      2992.7859      10645.061      60571.122      87120        
    213200   213200         1302.8402      304.11722      7630.0857      3034.108       10664.194      60529.929      87120        
    213300   213300         1303.4571      292.4264       7714.2888      2917.4713      10631.76       60868.698      87120        
    213400   213400         1304.0674      295.04457      7757.5082      2943.5922      10701.1        61002.118      87120        
    213500   213500         1304.6808      302.81343      7788.3919      3021.1003      10809.492      61239.651      87120        
    213600   213600         1305.2955      306.34895      7717.9219      3056.3734      10774.295      60903.614      87120        
    213700   213700         1305.9024      296.55923      7714.6554      2958.7036      10673.359      60816.715      87120        
    213800   213800         1306.5098      296.80684      7683.7462      2961.1739      10644.92       60800.564      87120        
    213900   213900         1307.1344      304.89977      7619.3395      3041.9152      10661.255      60485.093      87120        
    214000   214000         1307.7518      300.41277      7693.451       2997.1495      10690.6        60782.489      87120        
    214100   214100         1308.3616      305.81052      7699.5862      3051.0016      10750.588      60904.737      87120        
    214200   214200         1308.9869      300.99116      7740.1254      3002.92        10743.045      60955.171      87120        
    214300   214300         1309.5959      295.65719      7738.91        2949.7042      10688.614      60969.885      87120        
    214400   214400         1310.2035      295.03922      7712.5701      2943.5388      10656.109      60843.577      87120        
    214500   214500         1310.8091      301.97023      7732.4691      3012.6879      10745.157      60807.113      87120        
    214600   214600         1311.4149      304.50514      7668.2216      3037.9781      10706.2        60650.767      87120        
    214700   214700         1312.0219      298.67637      7693.3102      2979.8258      10673.136      60724.885      87120        
    214800   214800         1312.6268      302.31841      7659.8752      3016.1617      10676.037      60640.535      87120        
    214900   214900         1313.2442      295.33461      7727.4106      2946.4858      10673.896      60962.011      87120        
    215000   215000         1313.8556      291.07761      7731.0347      2904.0147      10635.049      60948.223      87120        
    215100   215100         1314.4653      297.67534      7746.6247      2969.8388      10716.463      61021.387      87120        
    215200   215200         1315.0671      304.85343      7782.3278      3041.4529      10823.781      61201.534      87120        
    215300   215300         1315.6724      306.61521      7743.0061      3059.0298      10802.036      61029.356      87120        
    215400   215400         1316.2853      298.78624      7730.753       2980.922       10711.675      61006.207      87120        
    215500   215500         1316.9185      293.93025      7718.5027      2932.4749      10650.978      60848.655      87120        
    215600   215600         1317.5378      297.10348      7689.7056      2964.1335      10653.839      60749.839      87120        
    215700   215700         1318.1453      298.23737      7702.4015      2975.446       10677.847      60877.01       87120        
    215800   215800         1318.7582      302.62686      7700.1924      3019.239       10719.431      60785.33       87120        
    215900   215900         1319.3581      300.22937      7713.1914      2995.3198      10708.511      60929.933      87120        
    216000   216000         1319.9556      305.24406      7676.8929      3045.3501      10722.243      60745.303      87120        
    216100   216100         1320.543       299.65017      7744.2645      2989.5412      10733.806      60983.31       87120        
    216200   216200         1321.1363      301.43821      7731.0407      3007.38        10738.421      60968.141      87120        
    216300   216300         1321.7334      307.18349      7693.9381      3064.6994      10758.638      60772.133      87120        
    216400   216400         1322.3368      300.44253      7689.7466      2997.4464      10687.193      60783.441      87120        
    216500   216500         1322.9361      291.62938      7737.4352      2909.5196      10646.955      60964.124      87120        
    216600   216600         1323.5363      304.99388      7659.5459      3042.8542      10702.4        60680.824      87120        
    216700   216700         1324.1345      302.04348      7766.2375      3013.4187      10779.656      61093.876      87120        
    216800   216800         1324.7354      299.47916      7768.6577      2987.835       10756.493      61154.746      87120        
    216900   216900         1325.3428      293.88342      7762.0978      2932.0076      10694.105      61179.283      87120        
    217000   217000         1325.9587      299.42459      7753.4289      2987.2906      10740.72       61126.782      87120        
    217100   217100         1326.5873      304.58265      7739.0408      3038.7514      10777.792      60999.082      87120        
    217200   217200         1327.2071      305.87827      7681.9668      3051.6776      10733.644      60861.437      87120        
    217300   217300         1327.8255      292.08942      7750.4063      2914.1094      10664.516      61018.99       87120        
    217400   217400         1328.455       299.80615      7716.0179      2991.0974      10707.115      60965.207      87120        
    217500   217500         1329.0723      307.4339       7678.8052      3067.1977      10746.003      60809.417      87120        
    217600   217600         1329.7017      300.79067      7707.7364      3000.9197      10708.656      60932.175      87120        
    217700   217700         1330.3241      295.60288      7730.9951      2949.1623      10680.157      61110.859      87120        
    217800   217800         1330.9421      295.36648      7780.7491      2946.8038      10727.553      61215.199      87120        
    217900   217900         1331.5732      301.80897      7751.3813      3011.079       10762.46       61062.927      87120        
    218000   218000         1332.2073      299.3689       7721.738       2986.7351      10708.473      60959.777      87120        
    218100   218100         1332.8285      297.34017      7697.8239      2966.4948      10664.319      60791.042      87120        
    218200   218200         1333.4624      297.44642      7691.2876      2967.5549      10658.842      60857.638      87120        
    218300   218300         1334.0871      300.76946      7712.6736      3000.7081      10713.382      61033.729      87120        
    218400   218400         1334.7182      305.42264      7758.7611      3047.1318      10805.893      61165.798      87120        
    218500   218500         1335.3428      303.85916      7727.2985      3031.5334      10758.832      61043.636      87120        
    218600   218600         1335.9696      299.00443      7686.0552      2983.0988      10669.154      60886.087      87120        
    218700   218700         1336.5939      298.8004       7685.5582      2981.0632      10666.621      60908.478      87120        
    218800   218800         1337.2321      301.66157      7697.3757      3009.6085      10706.984      60905.445      87120        
    218900   218900         1337.8527      304.64667      7751.1275      3039.3901      10790.518      61084.76       87120        
    219000   219000         1338.4814      308.61269      7719.4661      3078.9583      10798.424      60990.689      87120        
    219100   219100         1339.0923      297.21064      7688.6664      2965.2025      10653.869      60799.664      87120        
    219200   219200         1339.6985      297.59055      7691.2602      2968.9928      10660.253      60887.445      87120        
    219300   219300         1340.318       304.94813      7647.8325      3042.3977      10690.23       60820.89       87120        
    219400   219400         1340.943       302.62471      7714.1114      3019.2175      10733.329      60957.17       87120        
    219500   219500         1341.5685      301.65165      7730.6728      3009.5095      10740.182      61060.73       87120        
    219600   219600         1342.1907      297.04053      7678.9653      2963.5054      10642.471      60881.63       87120        
    219700   219700         1342.827       295.92887      7660.3559      2952.4146      10612.771      60756.953      87120        
    219800   219800         1343.4653      298.85764      7684.0296      2981.6343      10665.664      60832.876      87120        
    219900   219900         1344.0895      299.25821      7704.8951      2985.6307      10690.526      60909.759      87120        
    220000   220000         1344.7109      300.73704      7679.6495      3000.3847      10680.034      60891.484      87120        
    220100   220100         1345.3443      301.25226      7661.4015      3005.5249      10666.926      60802.246      87120        
    220200   220200         1345.9665      297.07106      7715.9795      2963.81        10679.789      61009.698      87120        
    220300   220300         1346.582       304.71914      7691.5742      3040.1132      10731.687      61005.249      87120        
    220400   220400         1347.2124      301.06422      7694.8355      3003.6489      10698.484      60927.234      87120        
    220500   220500         1347.8299      293.13497      7708.4907      2924.5405      10633.031      60998.683      87120        
    220600   220600         1348.4572      301.45835      7668.5619      3007.581       10676.143      60827.152      87120        
    220700   220700         1349.0969      306.59632      7701.5336      3058.8414      10760.375      60935.274      87120        
    220800   220800         1349.7252      303.98577      7694.6309      3032.7965      10727.427      60956.752      87120        
    220900   220900         1350.3523      297.62412      7698.0408      2969.3277      10667.369      60946.735      87120        
    221000   221000         1350.9803      294.63652      7742.3967      2939.5211      10681.918      61160.321      87120        
    221100   221100         1351.6036      302.02953      7694.7115      3013.2795      10707.991      60993.71       87120        
    221200   221200         1352.2234      311.48492      7654.1073      3107.6138      10761.721      60810.91       87120        
    221300   221300         1352.86        302.60647      7660.981       3019.0355      10680.016      60810.468      87120        
    221400   221400         1353.4733      296.31788      7643.1188      2956.2957      10599.414      60729.893      87120        
    221500   221500         1354.0963      298.674        7654.924       2979.8022      10634.726      60814.266      87120        
    221600   221600         1354.7203      299.19956      7741.2508      2985.0455      10726.296      61209.978      87120        
    221700   221700         1355.3595      303.50707      7779.8257      3028.0206      10807.846      61342.148      87120        
    221800   221800         1355.9856      303.19832      7737.9168      3024.9402      10762.857      61148.274      87120        
    221900   221900         1356.6361      293.7389       7648.0476      2930.5658      10578.613      60780.205      87120        
    222000   222000         1357.2608      297.44087      7614.5514      2967.4995      10582.051      60595.23       87120        
    222100   222100         1357.8628      302.72385      7661.8366      3020.2066      10682.043      60823.595      87120        
    222200   222200         1358.4922      300.12596      7751.2651      2994.2881      10745.553      61189.591      87120        
    222300   222300         1359.1091      303.85198      7698.3837      3031.4617      10729.845      61013.283      87120        
    222400   222400         1359.7429      297.11497      7681.854       2964.248       10646.102      60962.617      87120        
    222500   222500         1360.3717      296.22982      7661.1688      2955.4172      10616.586      60821.222      87120        
    222600   222600         1361.0137      302.6628       7591.2552      3019.5975      10610.853      60530.67       87120        
    222700   222700         1361.6478      294.1808       7666.7113      2934.9745      10601.686      60769.695      87120        
    222800   222800         1362.2837      304.43826      7650.3772      3037.3109      10687.688      60762.203      87120        
    222900   222900         1362.9262      310.85955      7656.4652      3101.3746      10757.84       60872.366      87120        
    223000   223000         1363.567       306.70981      7674.7217      3059.9736      10734.695      60924.633      87120        
    223100   223100         1364.2013      303.21964      7650.6903      3025.153       10675.843      60747.918      87120        
    223200   223200         1364.8263      296.83151      7621.6394      2961.42        10583.059      60703.006      87120        
    223300   223300         1365.459       296.16092      7627.522       2954.7297      10582.252      60712.434      87120        
    223400   223400         1366.0817      301.49606      7654.4638      3007.9573      10662.421      60810.491      87120        
    223500   223500         1366.7011      302.03783      7676.8806      3013.3624      10690.243      60893.787      87120        
    223600   223600         1367.3351      299.10803      7645.7925      2984.1324      10629.925      60714.816      87120        
    223700   223700         1367.9607      295.54314      7634.7639      2948.5663      10583.33       60701.228      87120        
    223800   223800         1368.598       301.13943      7609.2155      3004.3992      10613.615      60586.093      87120        
    223900   223900         1369.2311      314.59561      7634.3981      3138.6484      10773.047      60759.099      87120        
    224000   224000         1369.8746      304.32862      7689.9352      3036.217       10726.152      60902.425      87120        
    224100   224100         1370.5241      299.97775      7649.6789      2992.8094      10642.488      60753.833      87120        
    224200   224200         1371.1601      298.55052      7613.3226      2978.5703      10591.893      60635.951      87120        
    224300   224300         1371.7988      293.57507      7666.847       2928.9313      10595.778      60804.123      87120        
    224400   224400         1372.4398      309.87826      7594.306       3091.5845      10685.89       60556.707      87120        
    224500   224500         1373.0818      304.74546      7620.7899      3040.3757      10661.166      60735.569      87120        
    224600   224600         1373.7225      297.98508      7697.1088      2972.929       10670.038      60961.591      87120        
    224700   224700         1374.3635      300.8109       7658.7227      3001.1215      10659.844      60841.302      87120        
    224800   224800         1375.0096      303.51222      7612.8693      3028.072       10640.941      60678.927      87120        
    224900   224900         1375.6534      291.26334      7645.8065      2905.8677      10551.674      60689.729      87120        
    225000   225000         1376.3073      300.36781      7542.0495      2996.7009      10538.75       60423.726      87120        
    225100   225100         1376.9341      300.9799       7667.0472      3002.8076      10669.855      60872.357      87120        
    225200   225200         1377.5749      305.22116      7657.3811      3045.1217      10702.503      60850.856      87120        
    225300   225300         1378.2141      299.76475      7640.6448      2990.6843      10631.329      60822.76       87120        
    225400   225400         1378.8588      296.272        7634.3139      2955.838       10590.152      60713.598      87120        
    225500   225500         1379.4964      297.90197      7644.3463      2972.0998      10616.446      60717.959      87120        
    225600   225600         1380.1311      306.13227      7665.3103      3054.2116      10719.522      60893.994      87120        
    225700   225700         1380.7668      307.57339      7617.1257      3068.5893      10685.715      60696.469      87120        
    225800   225800         1381.4047      299.81184      7634.7025      2991.1541      10625.857      60716.739      87120        
    225900   225900         1382.0525      296.22953      7665.172       2955.4142      10620.586      60857.692      87120        
    226000   226000         1382.6867      297.03789      7685.8743      2963.4791      10649.353      60944.428      87120        
    226100   226100         1383.3012      306.95951      7622.4766      3062.4648      10684.941      60736.491      87120        
    226200   226200         1383.9247      297.60111      7622.2579      2969.0982      10591.356      60731.251      87120        
    226300   226300         1384.5437      295.31139      7630.8772      2946.2541      10577.131      60714.545      87120        
    226400   226400         1385.161       301.3818       7637.8334      3006.8172      10644.651      60786.531      87120        
    226500   226500         1385.7918      302.93132      7653.5759      3022.2765      10675.852      60847.126      87120        
    226600   226600         1386.4163      308.23813      7612.2758      3075.2213      10687.497      60717.07       87120        
    226700   226700         1387.0563      304.42939      7617.1922      3037.2223      10654.415      60700.432      87120        
    226800   226800         1387.6994      300.62392      7614.4975      2999.256       10613.754      60692.276      87120        
    226900   226900         1388.3348      294.04657      7668.4031      2933.6353      10602.038      60872.354      87120        
    227000   227000         1388.9906      304.37219      7632.6088      3036.6517      10669.261      60777.77       87120        
    227100   227100         1389.6439      308.13771      7647.1219      3074.2195      10721.341      60867.731      87120        
    227200   227200         1390.2996      301.16842      7625.7217      3004.6884      10630.41       60771.886      87120        
    227300   227300         1390.9591      296.14511      7606.4517      2954.572       10561.024      60642.797      87120        
    227400   227400         1391.613       297.8589       7624.4081      2971.6701      10596.078      60678.04       87120        
    227500   227500         1392.2522      305.68332      7607.5085      3049.7326      10657.241      60712.52       87120        
    227600   227600         1392.8975      299.24399      7661.9966      2985.4888      10647.485      60880.263      87120        
    227700   227700         1393.5335      295.45401      7703.4354      2947.677       10651.112      61068.876      87120        
    227800   227800         1394.1628      299.00247      7649.2219      2983.0792      10632.301      60871.442      87120        
    227900   227900         1394.8036      301.63102      7652.0395      3009.3037      10661.343      60875.558      87120        
    228000   228000         1395.4309      297.58798      7667.9225      2968.9672      10636.89       60855.228      87120        
    228100   228100         1396.0603      298.58734      7589.8295      2978.9375      10568.767      60523.949      87120        
    228200   228200         1396.6806      293.40158      7594.6326      2927.2004      10521.833      60528.628      87120        
    228300   228300         1397.3099      302.37145      7593.6824      3016.6908      10610.373      60570.875      87120        
    228400   228400         1397.9582      305.99998      7609.3992      3052.8918      10662.291      60601.226      87120        
    228500   228500         1398.5867      309.40444      7546.1716      3086.8574      10633.029      60480.45       87120        
    228600   228600         1399.2354      297.23362      7645.6407      2965.4319      10611.073      60755.559      87120        
    228700   228700         1399.8699      300.0438       7623.0832      2993.4684      10616.552      60743.542      87120        
    228800   228800         1400.5117      302.03255      7605.772       3013.3097      10619.082      60654.395      87120        
    228900   228900         1401.1442      305.51562      7642.3335      3048.0595      10690.393      60752.427      87120        
    229000   229000         1401.7886      306.48889      7646.714       3057.7695      10704.484      60804.736      87120        
    229100   229100         1402.4136      295.22576      7656.3485      2945.3999      10601.748      60787.884      87120        
    229200   229200         1403.0447      299.15778      7609.5239      2984.6288      10594.153      60643.674      87120        
    229300   229300         1403.6886      300.8458       7615.1239      3001.4697      10616.594      60618.046      87120        
    229400   229400         1404.3392      295.3854       7652.0307      2946.9926      10599.023      60799.237      87120        
    229500   229500         1404.9944      295.01371      7602.2025      2943.2843      10545.487      60570.662      87120        
    229600   229600         1405.6339      292.23525      7611.355       2915.5643      10526.919      60576.467      87120        
    229700   229700         1406.2824      304.14767      7580.7179      3034.4117      10615.13       60531.399      87120        
    229800   229800         1406.9159      303.50004      7622.3313      3027.9504      10650.282      60685.63       87120        
    229900   229900         1407.5586      300.7009       7602.1281      3000.0241      10602.152      60622.52       87120        
    230000   230000         1408.1865      296.48332      7614.3426      2957.9463      10572.289      60712.934      87120        
    230100   230100         1408.8201      298.52058      7627.9298      2978.2715      10606.201      60771.693      87120        
    230200   230200         1409.4625      305.37542      7592.3016      3046.6607      10638.962      60619.602      87120        
    230300   230300         1410.0881      293.19039      7653.041       2925.0934      10578.134      60823.061      87120        
    230400   230400         1410.7279      294.07787      7607.6791      2933.9476      10541.627      60638.298      87120        
    230500   230500         1411.3601      302.60807      7634.2815      3019.0515      10653.333      60767.863      87120        
    230600   230600         1411.9946      305.70767      7587.9133      3049.9755      10637.889      60604.353      87120        
    230700   230700         1412.641       296.35405      7600.3971      2956.6566      10557.054      60583.223      87120        
    230800   230800         1413.2722      294.64304      7648.598       2939.5862      10588.184      60864.686      87120        
    230900   230900         1413.9192      303.69601      7652.1952      3029.9056      10682.101      60886.056      87120        
    231000   231000         1414.5524      302.86826      7647.2985      3021.6473      10668.946      60792.902      87120        
    231100   231100         1415.1836      303.61216      7582.8603      3029.0691      10611.929      60556.979      87120        
    231200   231200         1415.8272      294.88712      7634.4184      2942.0213      10576.44       60724.565      87120        
    231300   231300         1416.4563      296.65017      7667.3561      2959.6109      10626.967      60900.11       87120        
    231400   231400         1417.0879      296.89626      7708.2244      2962.066       10670.29       61041.431      87120        
    231500   231500         1417.7235      311.34228      7627.3392      3106.1907      10733.53       60790.196      87120        
    231600   231600         1418.3583      301.92684      7637.1728      3012.255       10649.428      60802.635      87120        
    231700   231700         1418.9986      295.80393      7606.5457      2951.1681      10557.714      60667.29       87120        
    231800   231800         1419.6494      299.88985      7591.2864      2991.9324      10583.219      60592.327      87120        
    231900   231900         1420.2912      304.45055      7612.6121      3037.4335      10650.046      60691.869      87120        
    232000   232000         1420.9277      297.88811      7669.2453      2971.9615      10641.207      60920.29       87120        
    232100   232100         1421.5601      295.88844      7638.0243      2952.0113      10590.036      60799.926      87120        
    232200   232200         1422.215       297.43709      7659.7502      2967.4618      10627.212      60907.706      87120        
    232300   232300         1422.863       311.86844      7570.4914      3111.4401      10681.931      60515.405      87120        
    232400   232400         1423.5105      300.13558      7631.9518      2994.384       10626.336      60722.921      87120        
    232500   232500         1424.1653      303.18729      7579.0621      3024.8302      10603.892      60614.921      87120        
    232600   232600         1424.8091      300.1085       7625.4917      2994.1138      10619.606      60755.128      87120        
    232700   232700         1425.4607      308.00359      7650.732       3072.8814      10723.613      60928.412      87120        
    232800   232800         1426.1087      304.14099      7676.5643      3034.3451      10710.909      61006.731      87120        
    232900   232900         1426.7548      297.00321      7624.3134      2963.1331      10587.446      60684.398      87120        
    233000   233000         1427.4013      295.07368      7609.2859      2943.8826      10553.168      60653.788      87120        
    233100   233100         1428.0407      303.54426      7598.2706      3028.3917      10626.662      60642.603      87120        
    233200   233200         1428.6696      302.51781      7661.3413      3018.151       10679.492      60896.885      87120        
    233300   233300         1429.2929      295.30477      7678.5249      2946.1881      10624.713      61006.642      87120        
    233400   233400         1429.9225      292.75654      7622.3814      2920.765       10543.146      60736.272      87120        
    233500   233500         1430.5601      296.22436      7572.8861      2955.3626      10528.249      60548.009      87120        
    233600   233600         1431.2114      300.37036      7606.9384      2996.7263      10603.665      60637.582      87120        
    233700   233700         1431.8495      304.89886      7605.0113      3041.9062      10646.917      60620.015      87120        
    233800   233800         1432.5013      303.9713       7592.9497      3032.6521      10625.602      60684.789      87120        
    233900   233900         1433.1598      294.46402      7640.7955      2937.8002      10578.596      60772.038      87120        
    234000   234000         1433.8058      296.53689      7634.0366      2958.4807      10592.517      60815.921      87120        
    234100   234100         1434.4465      301.99086      7647.8289      3012.8937      10660.723      60857.472      87120        
    234200   234200         1435.0847      310.48155      7600.7338      3097.6034      10698.337      60634.889      87120        
    234300   234300         1435.7168      292.65587      7631.5844      2919.7606      10551.345      60779.236      87120        
    234400   234400         1436.3719      297.32658      7606.9073      2966.3593      10573.267      60616.922      87120        
    234500   234500         1437.0041      301.76737      7614.0869      3010.664       10624.751      60689.109      87120        
    234600   234600         1437.6608      302.75198      7590.5269      3020.4872      10611.014      60639.123      87120        
    234700   234700         1438.3054      295.3863       7586.856       2947.0015      10533.857      60548.631      87120        
    234800   234800         1438.9526      298.30569      7580.3956      2976.1276      10556.523      60570.418      87120        
    234900   234900         1439.5966      303.91975      7640.5111      3032.1378      10672.649      60772.179      87120        
    235000   235000         1440.2319      312.00889      7600.89        3112.8413      10713.731      60640.835      87120        
    235100   235100         1440.8559      300.81935      7633.2986      3001.2058      10634.504      60753.27       87120        
    235200   235200         1441.4917      298.75619      7594.1309      2980.6221      10574.753      60569.816      87120        
    235300   235300         1442.1154      297.93973      7594.4285      2972.4766      10566.905      60612.057      87120        
    235400   235400         1442.7538      302.4952       7597.6121      3017.9254      10615.538      60742.372      87120        
    235500   235500         1443.384       299.11663      7660.1127      2984.2182      10644.331      60847.866      87120        
    235600   235600         1444.0531      305.30643      7611.4737      3045.9724      10657.446      60744.244      87120        
    235700   235700         1444.6971      300.56364      7578.8342      2998.6546      10577.489      60586.231      87120        
    235800   235800         1445.3499      292.43416      7573.6188      2917.5487      10491.168      60411.348      87120        
    235900   235900         1446.0024      296.85551      7582.1852      2961.6595      10543.845      60604.269      87120        
    236000   236000         1446.645       302.66589      7592.3784      3019.6284      10612.007      60652.716      87120        
    236100   236100         1447.2778      299.60097      7643.6111      2989.0504      10632.662      60890.383      87120        
    236200   236200         1447.9106      301.96102      7587.5495      3012.5961      10600.146      60663.85       87120        
    236300   236300         1448.5461      302.29748      7534.6831      3015.9528      10550.636      60435.546      87120        
    236400   236400         1449.1987      298.04495      7561.2597      2973.5263      10534.786      60526.681      87120        
    236500   236500         1449.8344      299.35209      7643.2225      2986.5673      10629.79       60764.608      87120        
    236600   236600         1450.482       307.43232      7648.3362      3067.1819      10715.518      60921.293      87120        
    236700   236700         1451.1195      304.72044      7589.4014      3040.1261      10629.528      60668.39       87120        
    236800   236800         1451.7595      293.9085       7626.0812      2932.2579      10558.339      60713.326      87120        
    236900   236900         1452.3984      297.52903      7594.3352      2968.3791      10562.714      60594.314      87120        
    237000   237000         1453.0407      302.18367      7599.8704      3014.8173      10614.688      60598.444      87120        
    237100   237100         1453.6748      305.1274       7627.8351      3044.1862      10672.021      60690.381      87120        
    237200   237200         1454.3243      302.54702      7610.1334      3018.4424      10628.576      60723.365      87120        
    237300   237300         1454.9625      294.50685      7620.7365      2938.2274      10558.964      60626.241      87120        
    237400   237400         1455.6178      301.18231      7594.666       3004.827       10599.493      60660.113      87120        
    237500   237500         1456.2536      300.98359      7656.6219      3002.8444      10659.466      60876.725      87120        
    237600   237600         1456.884       307.32986      7632.6472      3066.1597      10698.807      60786.481      87120        
    237700   237700         1457.5097      303.7136       7617.5715      3030.0811      10647.653      60733.904      87120        
    237800   237800         1458.1494      294.77406      7620.7357      2940.8933      10561.629      60642.763      87120        
    237900   237900         1458.7826      287.92645      7610.4215      2872.5763      10482.998      60677.309      87120        
    238000   238000         1459.4164      292.51149      7642.5358      2918.3203      10560.856      60806.491      87120        
    238100   238100         1460.0455      300.55068      7628.9193      2998.5253      10627.445      60766.214      87120        
    238200   238200         1460.6784      297.54822      7664.464       2968.5706      10633.035      60935.181      87120        
    238300   238300         1461.3138      307.67952      7576.9642      3069.6481      10646.612      60601.589      87120        
    238400   238400         1461.9484      300.054        7613.6957      2993.5701      10607.266      60668.938      87120        
    238500   238500         1462.5866      291.2219       7623.6024      2905.4542      10529.057      60702.908      87120        
    238600   238600         1463.2302      301.56862      7596.9003      3008.6811      10605.581      60612.246      87120        
    238700   238700         1463.8689      301.77201      7627.7384      3010.7103      10638.449      60831.017      87120        
    238800   238800         1464.5047      303.72276      7618.8494      3030.1725      10649.022      60795.218      87120        
    238900   238900         1465.1421      298.3461       7643.6106      2976.5308      10620.141      60755.961      87120        
    239000   239000         1465.789       295.06768      7676.6105      2943.8227      10620.433      60944.863      87120        
    239100   239100         1466.4135      307.54081      7615.2761      3068.2643      10683.54       60703.931      87120        
    239200   239200         1467.0508      301.37841      7623.3358      3006.7835      10630.119      60677.733      87120        
    239300   239300         1467.6814      301.14327      7581.594       3004.4375      10586.031      60593.884      87120        
    239400   239400         1468.3216      302.28039      7597.0916      3015.7824      10612.874      60653.924      87120        
    239500   239500         1468.955       300.16618      7628.7214      2994.6893      10623.411      60840.127      87120        
    239600   239600         1469.602       301.25738      7643.5197      3005.5759      10649.096      60802.561      87120        
    239700   239700         1470.2392      306.89057      7607.9777      3061.777       10669.755      60616.422      87120        
    239800   239800         1470.8948      301.82935      7557.8988      3011.2824      10569.181      60465.508      87120        
    239900   239900         1471.5284      293.87404      7625.0058      2931.9141      10556.92       60658.015      87120        
    240000   240000         1472.1791      301.45791      7617.193       3007.5766      10624.77       60737.488      87120        
    240100   240100         1472.8123      305.04982      7612.1256      3043.4123      10655.538      60779.045      87120        
    240200   240200         1473.4604      298.03196      7607.4604      2973.3967      10580.857      60650.088      87120        
    240300   240300         1474.0993      289.42653      7585.7087      2887.5423      10473.251      60582.393      87120        
    240400   240400         1474.744       295.99158      7569.4275      2953.0403      10522.468      60514.345      87120        
    240500   240500         1475.3948      302.45993      7601.0437      3017.5735      10618.617      60675.997      87120        
    240600   240600         1476.0616      305.97016      7592.8628      3052.5943      10645.457      60618.892      87120        
    240700   240700         1476.7096      300.76882      7604.978       3000.7017      10605.68       60680.085      87120        
    240800   240800         1477.3601      295.97829      7623.0921      2952.9076      10576          60740.038      87120        
    240900   240900         1478.0216      305.38393      7591.6851      3046.7456      10638.431      60571.142      87120        
    241000   241000         1478.6671      305.46897      7639.1167      3047.594       10686.711      60798.208      87120        
    241100   241100         1479.3145      301.34426      7624.4803      3006.4427      10630.923      60814.401      87120        
    241200   241200         1479.9656      291.47391      7648.6074      2907.9685      10556.576      60799.112      87120        
    241300   241300         1480.6085      296.37488      7629.6639      2956.8644      10586.528      60774.278      87120        
    241400   241400         1481.2543      298.51052      7643.9423      2978.1711      10622.113      60843.298      87120        
    241500   241500         1481.899       305.35591      7596.2578      3046.4661      10642.724      60607.871      87120        
    241600   241600         1482.5492      294.3431       7657.8624      2936.5937      10594.456      60888.304      87120        
    241700   241700         1483.2018      296.18085      7582.9051      2954.9286      10537.834      60590.072      87120        
    241800   241800         1483.8559      290.45414      7611.7953      2897.7946      10509.59       60682.69       87120        
    241900   241900         1484.507       299.42139      7632.7951      2987.2587      10620.054      60838.55       87120        
    242000   242000         1485.1759      305.45293      7597.452       3047.434       10644.886      60674.883      87120        
    242100   242100         1485.8235      296.77774      7630.3596      2960.8836      10591.243      60819.884      87120        
    242200   242200         1486.4881      292.7301       7668.2729      2920.5012      10588.774      60917.724      87120        
    242300   242300         1487.1564      308.97295      7594.0903      3082.5524      10676.643      60563.351      87120        
    242400   242400         1487.8021      304.5346       7620.8675      3038.272       10659.14       60778.484      87120        
    242500   242500         1488.4493      295.95282      7649.5813      2952.6536      10602.235      60829.189      87120        
    242600   242600         1489.0996      294.31426      7683.053       2936.3061      10619.359      60958.396      87120        
    242700   242700         1489.7312      300.87571      7667.4919      3001.7681      10669.26       60935.145      87120        
    242800   242800         1490.3591      301.36424      7674.218       3006.6421      10680.86       60893.82       87120        
    242900   242900         1490.9996      304.42515      7652.8584      3037.1801      10690.039      60862.103      87120        
    243000   243000         1491.6274      298.05356      7644.3358      2973.6122      10617.948      60808.631      87120        
    243100   243100         1492.2619      291.38918      7673.1688      2907.1232      10580.292      60877.779      87120        
    243200   243200         1492.8898      303.61056      7629.6769      3029.0531      10658.73       60800.367      87120        
    243300   243300         1493.5211      304.50733      7626.12        3037.9999      10664.12       60793.03       87120        
    243400   243400         1494.1552      296.80279      7613.1881      2961.1335      10574.322      60698.896      87120        
    243500   243500         1494.7958      290.78237      7595.3835      2901.0692      10496.453      60578.006      87120        
    243600   243600         1495.4403      299.38402      7549.7069      2986.8859      10536.593      60438.789      87120        
    243700   243700         1496.0872      301.06647      7648.7375      3003.6713      10652.409      60870.018      87120        
    243800   243800         1496.7444      301.934        7652.5024      3012.3264      10664.829      60838.013      87120        
    243900   243900         1497.3942      299.67389      7596.5045      2989.7778      10586.282      60603.367      87120        
    244000   244000         1498.0536      294.26627      7606.5509      2935.8272      10542.378      60667.674      87120        
    244100   244100         1498.6911      303.96334      7605.2291      3032.5727      10637.802      60706.495      87120        
    244200   244200         1499.3285      310.28267      7601.4232      3095.6192      10697.042      60655.911      87120        
    244300   244300         1499.9657      301.77679      7609.3893      3010.758       10620.147      60697.18       87120        
    244400   244400         1500.6027      295.82172      7600.8633      2951.3457      10552.209      60658.697      87120        
    244500   244500         1501.2367      295.80186      7616.6307      2951.1475      10567.778      60651.898      87120        
    244600   244600         1501.8721      303.36904      7613.9615      3026.6435      10640.605      60660.18       87120        
    244700   244700         1502.5065      300.56461      7652.6998      2998.6644      10651.364      60807.61       87120        
    244800   244800         1503.1407      298.9859       7631.2021      2982.9139      10614.116      60741.535      87120        
    244900   244900         1503.773       297.09348      7634.8117      2964.0337      10598.845      60839.05       87120        
    245000   245000         1504.4105      299.91013      7609.306       2992.1347      10601.441      60694.735      87120        
    245100   245100         1505.0545      296.30671      7642.8353      2956.1842      10599.02       60814.186      87120        
    245200   245200         1505.6849      303.58244      7592.8624      3028.7726      10621.635      60646.991      87120        
    245300   245300         1506.3308      300.30861      7645.0236      2996.1103      10641.134      60784.416      87120        
    245400   245400         1506.9768      308.1863       7618.9344      3074.7042      10693.639      60791.231      87120        
    245500   245500         1507.6183      299.79608      7639.6103      2990.9969      10630.607      60770.049      87120        
    245600   245600         1508.2608      299.53434      7587.911       2988.3856      10576.297      60605.97       87120        
    245700   245700         1508.9055      299.43149      7595.415       2987.3595      10582.774      60646.867      87120        
    245800   245800         1509.5671      300.65453      7651.8323      2999.5615      10651.394      60800.157      87120        
    245900   245900         1510.2143      308.22086      7605.4204      3075.049       10680.469      60696.713      87120        
    246000   246000         1510.8627      302.01715      7622.2857      3013.156       10635.442      60763.32       87120        
    246100   246100         1511.5142      302.74613      7601.6765      3020.4289      10622.105      60726.186      87120        
    246200   246200         1512.1616      300.06547      7624.0061      2993.6846      10617.691      60829.765      87120        
    246300   246300         1512.8083      298.89521      7641.1901      2982.0092      10623.199      60813.406      87120        
    246400   246400         1513.4608      302.13651      7659.3215      3014.3469      10673.668      60903.068      87120        
    246500   246500         1514.1227      308.17395      7626.2081      3074.581       10700.789      60767.795      87120        
    246600   246600         1514.7751      306.44781      7558.5471      3057.3597      10615.907      60500.905      87120        
    246700   246700         1515.4106      295.28567      7643.6804      2945.9975      10589.678      60791.201      87120        
    246800   246800         1516.0571      304.6685       7595.8354      3039.6079      10635.443      60657.389      87120        
    246900   246900         1516.6856      305.44328      7626.3133      3047.3378      10673.651      60808.76       87120        
    247000   247000         1517.3233      300.30613      7650.4989      2996.0856      10646.585      60899.256      87120        
    247100   247100         1517.9349      295.87009      7621.2585      2951.8282      10573.087      60705.234      87120        
    247200   247200         1518.5574      285.25178      7601.239       2845.8918      10447.131      60612.268      87120        
    247300   247300         1519.1835      297.54089      7575.7853      2968.4974      10544.283      60575.87       87120        
    247400   247400         1519.8231      301.71245      7588.2791      3010.1161      10598.395      60605.933      87120        
    247500   247500         1520.4626      297.78305      7643.6826      2970.9134      10614.596      60790.36       87120        
    247600   247600         1521.1064      301.25825      7643.1661      3005.5847      10648.751      60774.067      87120        
    247700   247700         1521.7501      304.23253      7634.3877      3035.2583      10669.646      60750.552      87120        
    247800   247800         1522.4067      297.59583      7643.9004      2969.0455      10612.946      60798.226      87120        
    247900   247900         1523.0572      293.74261      7618.5786      2930.6028      10549.181      60706.283      87120        
    248000   248000         1523.7043      298.52811      7601.1501      2978.3466      10579.497      60640.732      87120        
    248100   248100         1524.3478      306.23676      7639.6954      3055.2541      10694.949      60804.715      87120        
    248200   248200         1524.9781      302.42788      7676.7106      3017.2537      10693.964      60960.218      87120        
    248300   248300         1525.6096      302.49722      7640.7846      3017.9456      10658.73       60779.944      87120        
    248400   248400         1526.245       301.05976      7610.8794      3003.6043      10614.484      60630.248      87120        
    248500   248500         1526.8768      292.32266      7639.8999      2916.4363      10556.336      60751          87120        
    248600   248600         1527.5077      293.09336      7615.452       2924.1254      10539.577      60660.681      87120        
    248700   248700         1528.138       295.69596      7688.642       2950.0909      10638.733      61043.566      87120        
    248800   248800         1528.7838      307.64922      7633.0935      3069.3459      10702.439      60859.663      87120        
    248900   248900         1529.4224      303.83167      7598.3845      3031.2591      10629.644      60683.449      87120        
    249000   249000         1530.0785      293.25479      7626.0554      2925.736       10551.791      60745.334      87120        
    249100   249100         1530.7226      302.62653      7589.1609      3019.2356      10608.396      60629.766      87120        
    249200   249200         1531.3821      302.52279      7654.6263      3018.2006      10672.827      60905.401      87120        
    249300   249300         1532.0278      304.09213      7637.0846      3033.8577      10670.942      60811.178      87120        
    249400   249400         1532.6903      299.48775      7634.41        2987.9208      10622.331      60775.518      87120        
    249500   249500         1533.3447      295.75815      7610.4955      2950.7114      10561.207      60675.221      87120        
    249600   249600         1534.0043      295.61666      7628.3058      2949.2998      10577.606      60728.813      87120        
    249700   249700         1534.6632      299.53525      7673.0175      2988.3946      10661.412      60903.347      87120        
    249800   249800         1535.3034      309.40428      7599.7262      3086.8558      10686.582      60687.301      87120        
    249900   249900         1535.9494      302.16881      7622.8384      3014.6691      10637.507      60764.979      87120        
    250000   250000         1536.5905      293.34894      7669.1285      2926.6752      10595.804      60918.431      87120        
    250100   250100         1537.2236      297.1607       7632.736       2964.7043      10597.44       60741.211      87120        
    250200   250200         1537.8557      307.97171      7576.1583      3072.5632      10648.722      60599.763      87120        
    250300   250300         1538.4835      307.02656      7644.9622      3063.1338      10708.096      60862.728      87120        
    250400   250400         1539.1296      315.92462      7647.331       3151.9076      10799.239      60822.587      87120        
    250500   250500         1539.761       305.98159      7658.8074      3052.7084      10711.516      60884.468      87120        
    250600   250600         1540.3831      302.59193      7632.3452      3018.8905      10651.236      60796.298      87120        
    250700   250700         1541.0196      298.53168      7618.3989      2978.3823      10596.781      60702.65       87120        
    250800   250800         1541.6592      295.63204      7617.5613      2949.4532      10567.014      60759.954      87120        
    250900   250900         1542.3023      300.92336      7618.0758      3002.2435      10620.319      60673.451      87120        
    251000   251000         1542.9477      305.55977      7631.5988      3048.4999      10680.099      60740.047      87120        
    251100   251100         1543.593       302.14279      7640.3019      3014.4095      10654.711      60796.459      87120        
    251200   251200         1544.2321      302.58885      7628.3415      3018.8597      10647.201      60758.547      87120        
    251300   251300         1544.8767      304.6031       7588.1686      3038.9555      10627.124      60647.569      87120        
    251400   251400         1545.5224      299.63922      7594.5773      2989.432       10584.009      60636.082      87120        
    251500   251500         1546.1661      297.52054      7611.0191      2968.2943      10579.313      60613.948      87120        
    251600   251600         1546.8134      310.37689      7602.6617      3096.5593      10699.221      60662.332      87120        
    251700   251700         1547.4567      303.31787      7647.0431      3026.133       10673.176      60829.624      87120        
    251800   251800         1548.1137      300.37418      7627.3251      2996.7644      10624.089      60743.415      87120        
    251900   251900         1548.7637      294.87239      7632.6676      2941.8744      10574.542      60732.693      87120        
    252000   252000         1549.4168      297.96955      7610.8877      2972.774       10583.662      60657.996      87120        
    252100   252100         1550.0666      301.37469      7645.8326      3006.7463      10652.579      60862.178      87120        
    252200   252200         1550.7035      308.13971      7690.2573      3074.2394      10764.497      60993.302      87120        
    252300   252300         1551.3521      304.8473       7665.1847      3041.3918      10706.577      60974.548      87120        
    252400   252400         1551.9894      298.57194      7644.8339      2978.7839      10623.618      60844.489      87120        
    252500   252500         1552.6252      292.79624      7687.529       2921.1611      10608.69       60935.485      87120        
    252600   252600         1553.2672      299.4172       7664.1835      2987.2169      10651.4        60897.824      87120        
    252700   252700         1553.9203      310.68679      7606.6427      3099.6511      10706.294      60656.646      87120        
    252800   252800         1554.5643      291.84732      7715.6803      2911.6939      10627.374      61070.372      87120        
    252900   252900         1555.2205      295.54096      7688.2605      2948.5446      10636.805      61027.074      87120        
    253000   253000         1555.8756      297.9905       7691.8426      2972.983       10664.826      60951.328      87120        
    253100   253100         1556.5224      302.50262      7631.0791      3017.9995      10649.079      60752.596      87120        
    253200   253200         1557.1622      295.29375      7643.9984      2946.0782      10590.077      60763.457      87120        
    253300   253300         1557.8168      293.71266      7645.6029      2930.304       10575.907      60721.295      87120        
    253400   253400         1558.4651      302.11467      7629.8894      3014.1289      10644.018      60803.098      87120        
    253500   253500         1559.1183      304.75014      7677.956       3040.4224      10718.378      61010.96       87120        
    253600   253600         1559.7786      304.93795      7647.3075      3042.2962      10689.604      60846.974      87120        
    253700   253700         1560.4307      292.90805      7643.4667      2922.2766      10565.743      60771.198      87120        
    253800   253800         1561.0789      294.77899      7670.6719      2940.9425      10611.614      60841.301      87120        
    253900   253900         1561.7236      305.87442      7663.1039      3051.6392      10714.743      60897.404      87120        
    254000   254000         1562.3769      305.45946      7672.0582      3047.4992      10719.557      61004.1        87120        
    254100   254100         1563.0075      295.50023      7679.9129      2948.1382      10628.051      60941.972      87120        
    254200   254200         1563.6469      295.82969      7651.1794      2951.4251      10602.605      60799.145      87120        
    254300   254300         1564.2943      299.52639      7654.0298      2988.3063      10642.336      60862.567      87120        
    254400   254400         1564.9285      309.06806      7661.6022      3083.5013      10745.104      60943.939      87120        
    254500   254500         1565.5622      304.41471      7708.2912      3037.076       10745.367      61076.286      87120        
    254600   254600         1566.2009      294.35057      7681.9437      2936.6683      10618.612      60953.779      87120        
    254700   254700         1566.8427      295.69815      7655.1621      2950.1128      10605.275      60802.049      87120        
    254800   254800         1567.4863      303.75491      7640.3335      3030.4932      10670.827      60796.548      87120        
    254900   254900         1568.1303      308.72627      7607.9836      3080.0913      10688.075      60727.16       87120        
    255000   255000         1568.7675      298.58551      7643.2815      2978.9193      10622.201      60800.665      87120        
    255100   255100         1569.4071      295.20455      7640.0291      2945.1883      10585.217      60768.817      87120        
    255200   255200         1570.0476      300.23036      7615.8596      2995.3296      10611.189      60736.349      87120        
    255300   255300         1570.7023      305.26759      7600.7964      3045.5849      10646.381      60679.214      87120        
    255400   255400         1571.3375      295.47745      7709.4249      2947.9109      10657.336      61022.784      87120        
    255500   255500         1571.9916      309.06962      7627.0798      3083.5169      10710.597      60784.138      87120        
    255600   255600         1572.6223      309.3427       7624.8844      3086.2413      10711.126      60719.782      87120        
    255700   255700         1573.2486      296.2656       7637.5815      2955.7741      10593.356      60753.295      87120        
    255800   255800         1573.8887      303.01204      7596.4867      3023.0818      10619.569      60676.199      87120        
    255900   255900         1574.5146      299.33435      7636.6501      2986.3904      10623.04       60845.337      87120        
    256000   256000         1575.1532      292.49801      7657.2177      2918.1857      10575.403      60874.682      87120        
    256100   256100         1575.772       300.10902      7621.3934      2994.119       10615.512      60713.51       87120        
    256200   256200         1576.3999      308.95664      7566.1808      3082.3897      10648.57       60546.318      87120        
    256300   256300         1577.0304      302.74243      7595.5642      3020.392       10615.956      60666.161      87120        
    256400   256400         1577.6667      293.88711      7677.7629      2932.0445      10609.807      60969.477      87120        
    256500   256500         1578.3003      299.22184      7685.9455      2985.2678      10671.213      61035.996      87120        
    256600   256600         1578.9417      302.41069      7647.1076      3017.0823      10664.19       60821.624      87120        
    256700   256700         1579.5728      298.61964      7636.5562      2979.2598      10615.816      60779.092      87120        
    256800   256800         1580.2281      302.43599      7591.5457      3017.3347      10608.88       60606.494      87120        
    256900   256900         1580.8772      305.32856      7583.9349      3046.1932      10630.128      60594.913      87120        
    257000   257000         1581.5267      296.06714      7641.8406      2953.7942      10595.635      60832.966      87120        
    257100   257100         1582.1559      292.39955      7661.854       2917.2034      10579.057      60891.675      87120        
    257200   257200         1582.7987      303.46542      7600.6086      3027.605       10628.214      60714.069      87120        
    257300   257300         1583.4385      301.74936      7611.824       3010.4844      10622.308      60709.047      87120        
    257400   257400         1584.0676      300.80546      7611.2206      3001.0673      10612.288      60626.163      87120        
    257500   257500         1584.7046      297.37956      7627.3954      2966.8878      10594.283      60717.465      87120        
    257600   257600         1585.3421      295.2859       7670.0004      2945.9999      10616          60927.988      87120        
    257700   257700         1585.981       300.16902      7623.9262      2994.7177      10618.644      60762.023      87120        
    257800   257800         1586.6239      294.59353      7663.8276      2939.0923      10602.92       60887.686      87120        
    257900   257900         1587.2585      302.81016      7674.516       3021.0677      10695.584      60914.018      87120        
    258000   258000         1587.9109      308.23882      7643.4004      3075.2282      10718.629      60782.354      87120        
    258100   258100         1588.5521      303.37974      7625.7612      3026.7503      10652.511      60811.446      87120        
    258200   258200         1589.1994      297.16366      7652.414       2964.7339      10617.148      60902.675      87120        
    258300   258300         1589.8489      298.00724      7688.7191      2973.1501      10661.869      60952.986      87120        
    258400   258400         1590.4959      304.51968      7694.6113      3038.1232      10732.734      61068.407      87120        
    258500   258500         1591.1443      299.32108      7667.8786      2986.258       10654.137      60899.341      87120        
    258600   258600         1591.7913      295.0506       7639.8974      2943.6524      10583.55       60764.134      87120        
    258700   258700         1592.4354      298.47552      7634.3116      2977.822       10612.134      60785.168      87120        
    258800   258800         1593.0771      307.04337      7586.5967      3063.3014      10649.898      60605.357      87120        
    258900   258900         1593.7235      301.97301      7606.9059      3012.7157      10619.622      60665.636      87120        
    259000   259000         1594.3705      293.43728      7609.6147      2927.5567      10537.171      60691.599      87120        
    259100   259100         1595.0081      295.29323      7645.3453      2946.073       10591.418      60810.75       87120        
    259200   259200         1595.6415      298.12888      7682.5383      2974.3636      10656.902      61036.998      87120        
    259300   259300         1596.2776      304.85532      7603.4428      3041.4718      10644.915      60666.284      87120        
    259400   259400         1596.9073      297.08565      7617.4701      2963.9556      10581.426      60696.377      87120        
    259500   259500         1597.5419      298.75221      7610.6897      2980.5825      10591.272      60709.36       87120        
    259600   259600         1598.178       303.64443      7673.7249      3029.391       10703.116      60898.794      87120        
    259700   259700         1598.8152      309.99886      7672.7563      3092.7877      10765.544      61010.693      87120        
    259800   259800         1599.4536      298.29913      7674.5719      2976.0622      10650.634      60964.428      87120        
    259900   259900         1600.0933      299.28889      7598.8206      2985.9368      10584.757      60672.206      87120        
    260000   260000         1600.7413      298.47911      7623.1481      2977.8578      10601.006      60786.549      87120        
    260100   260100         1601.3585      304.0313       7644.7263      3033.2507      10677.977      60840.099      87120        
    260200   260200         1601.9874      306.19306      7651.6341      3054.8181      10706.452      60948.193      87120        
    260300   260300         1602.6187      298.36087      7626.9157      2976.6782      10603.594      60790.521      87120        
    260400   260400         1603.2585      295.4832       7588.381       2947.9683      10536.349      60591.334      87120        
    260500   260500         1603.8858      295.01235      7630.2837      2943.2707      10573.554      60742.565      87120        
    260600   260600         1604.5277      302.28136      7647.7131      3015.792       10663.505      60736.003      87120        
    260700   260700         1605.1674      304.58271      7624.6094      3038.752       10663.361      60734.936      87120        
    260800   260800         1605.7982      307.81852      7574.0996      3071.0349      10645.134      60669.602      87120        
    260900   260900         1606.4468      297.02667      7671.7051      2963.3671      10635.072      60961.284      87120        
    261000   261000         1607.0934      300.41668      7672.5181      2997.1885      10669.707      60968.935      87120        
    261100   261100         1607.7331      302.493        7650.2795      3017.9035      10668.183      60866.917      87120        
    261200   261200         1608.364       303.12705      7589.7827      3024.2292      10614.012      60572.923      87120        
    261300   261300         1609.0086      295.32494      7674.6613      2946.3894      10621.051      60937.451      87120        
    261400   261400         1609.6613      303.42773      7666.3912      3027.2291      10693.62       60902.541      87120        
    261500   261500         1610.3024      302.44198      7663.4908      3017.3945      10680.885      60917.354      87120        
    261600   261600         1610.9511      291.48314      7669.1533      2908.0606      10577.214      60948.338      87120        
    261700   261700         1611.5999      297.8657       7639.3786      2971.738       10611.117      60850.318      87120        
    261800   261800         1612.248       304.60474      7618.1807      3038.9718      10657.152      60767.327      87120        
    261900   261900         1612.8903      298.12777      7664.743       2974.3526      10639.096      60938.1        87120        
    262000   262000         1613.5278      300.27478      7590.2413      2995.7728      10586.014      60651.922      87120        
    262100   262100         1614.1581      286.53993      7644.7815      2858.7434      10503.525      60849.664      87120        
    262200   262200         1614.7917      297.3658       7619.199       2966.7505      10585.95       60734.848      87120        
    262300   262300         1615.4324      300.9286       7660.415       3002.2958      10662.711      60901.623      87120        
    262400   262400         1616.0708      306.36663      7634.8858      3056.5497      10691.436      60883.248      87120        
    262500   262500         1616.7086      297.2747       7682.1051      2965.8417      10647.947      60963.241      87120        
    262600   262600         1617.3512      294.71921      7642.4767      2940.3461      10582.823      60813.775      87120        
    262700   262700         1617.9843      298.55105      7637.2807      2978.5755      10615.856      60871.246      87120        
    262800   262800         1618.6454      302.75792      7712.561       3020.5465      10733.108      61100.099      87120        
    262900   262900         1619.2988      300.85744      7729.1141      3001.5858      10730.7        61130.446      87120        
    263000   263000         1619.954       297.62546      7704.1641      2969.3411      10673.505      61069.646      87120        
    263100   263100         1620.6014      288.93304      7716.0143      2882.6189      10598.633      61006.92       87120        
    263200   263200         1621.2638      306.73195      7626.5671      3060.1945      10686.762      60796.374      87120        
    263300   263300         1621.9159      308.31969      7653.6527      3076.035       10729.688      60869.815      87120        
    263400   263400         1622.5663      300.72233      7679.9937      3000.2379      10680.232      60932.05       87120        
    263500   263500         1623.2028      298.17641      7672.8047      2974.8378      10647.642      61006.332      87120        
    263600   263600         1623.8649      304.09571      7651.5068      3033.8933      10685.4        60830.324      87120        
    263700   263700         1624.5         305.12413      7679.0324      3044.1537      10723.186      60983.074      87120        
    263800   263800         1625.1548      307.40979      7693.5353      3066.9572      10760.492      61010.162      87120        
    263900   263900         1625.8003      307.57832      7605.0191      3068.6385      10673.658      60656.691      87120        
    264000   264000         1626.447       297.70869      7672.7511      2970.1715      10642.923      61031.292      87120        
    264100   264100         1627.0933      297.64023      7670.9663      2969.4885      10640.455      60998.771      87120        
    264200   264200         1627.7396      299.74111      7684.6688      2990.4485      10675.117      60922.307      87120        
    264300   264300         1628.3868      310.26417      7585.8692      3095.4346      10681.304      60582.607      87120        
    264400   264400         1629.0397      297.50326      7644.7126      2968.122       10612.835      60774.162      87120        
    264500   264500         1629.6986      300.11646      7623.7825      2994.1933      10617.976      60743.583      87120        
    264600   264600         1630.3533      298.41268      7660.7454      2977.1951      10637.941      60983.986      87120        
    264700   264700         1631.0009      302.90961      7654.7892      3022.0599      10676.849      60947.321      87120        
    264800   264800         1631.6663      306.58226      7659.4974      3058.7011      10718.198      60965.177      87120        
    264900   264900         1632.3248      304.95718      7655.7221      3042.488       10698.21       60939.969      87120        
    265000   265000         1632.9686      299.38663      7612.9523      2986.912       10599.864      60638.322      87120        
    265100   265100         1633.6137      298.42496      7597.5565      2977.3176      10574.874      60637.234      87120        
    265200   265200         1634.2773      297.86569      7652.263       2971.7378      10624.001      60838.05       87120        
    265300   265300         1634.9211      311.07286      7636.9357      3103.5027      10740.438      60829.791      87120        
    265400   265400         1635.5718      303.40105      7670.2538      3026.9629      10697.217      60926.8        87120        
    265500   265500         1636.2295      296.63743      7674.9572      2959.4838      10634.441      60967.009      87120        
    265600   265600         1636.8906      297.50179      7643.3298      2968.1073      10611.437      60821.97       87120        
    265700   265700         1637.5466      301.96169      7607.3761      3012.6027      10619.979      60728.265      87120        
    265800   265800         1638.192       301.12841      7618.9285      3004.2893      10623.218      60765.071      87120        
    265900   265900         1638.8475      296.08329      7669.8771      2953.9552      10623.832      60905.041      87120        
    266000   266000         1639.4971      305.99435      7597.8095      3052.8356      10650.645      60684.474      87120        
    266100   266100         1640.1311      305.68378      7608.2821      3049.7371      10658.019      60669.991      87120        
    266200   266200         1640.7913      304.06578      7621.115       3033.5947      10654.71       60758.718      87120        
    266300   266300         1641.4491      295.48863      7663.4376      2948.0224      10611.46       60822.516      87120        
    266400   266400         1642.0932      294.53033      7647.4455      2938.4617      10585.907      60805.277      87120        
    266500   266500         1642.7539      301.00895      7661.5081      3003.0974      10664.606      60918.691      87120        
    266600   266600         1643.4195      303.33179      7673.8939      3026.2718      10700.166      60968.411      87120        
    266700   266700         1644.0811      302.83844      7634.4399      3021.3499      10655.79       60841.731      87120        
    266800   266800         1644.7385      297.3487       7665.5545      2966.58        10632.134      60895.906      87120        
    266900   266900         1645.3902      296.77778      7681.6375      2960.884       10642.521      60984.92       87120        
    267000   267000         1646.0514      300.25941      7659.6083      2995.6195      10655.228      60900.919      87120        
    267100   267100         1646.7041      301.71114      7636.8041      3010.103       10646.907      60801.293      87120        
    267200   267200         1647.3445      302.81808      7627.8983      3021.1467      10649.045      60799.682      87120        
    267300   267300         1648.0005      301.75733      7629.4827      3010.5639      10640.047      60779.873      87120        
    267400   267400         1648.6479      296.65927      7660.7053      2959.7017      10620.407      60877.365      87120        
    267500   267500         1649.3038      294.52103      7625.6981      2938.369       10564.067      60797.094      87120        
    267600   267600         1649.948       300.27824      7584.6764      2995.8073      10580.484      60596.486      87120        
    267700   267700         1650.6022      301.82765      7650.6212      3011.2654      10661.887      60877.621      87120        
    267800   267800         1651.2518      304.74739      7644.9979      3040.395       10685.393      60881.392      87120        
    267900   267900         1651.9117      300.74598      7580.5133      3000.4738      10580.987      60588.8        87120        
    268000   268000         1652.5576      291.3764       7605.1192      2906.9957      10512.115      60649.858      87120        
    268100   268100         1653.1998      298.09321      7614.8474      2974.0078      10588.855      60656.781      87120        
    268200   268200         1653.8428      305.31704      7593.5157      3046.0783      10639.594      60668.667      87120        
    268300   268300         1654.496       297.31819      7671.2753      2966.2756      10637.551      60945.108      87120        
    268400   268400         1655.1374      297.15188      7663.4445      2964.6163      10628.061      60917.66       87120        
    268500   268500         1655.7776      295.48044      7651.4265      2947.9408      10599.367      60857.112      87120        
    268600   268600         1656.4316      301.64703      7600.9321      3009.4634      10610.395      60657.847      87120        
    268700   268700         1657.0832      308.80339      7571.6314      3080.8608      10652.492      60590.594      87120        
    268800   268800         1657.7318      298.33189      7658.8774      2976.389       10635.266      60892.529      87120        
    268900   268900         1658.3812      291.98613      7684.755       2913.0788      10597.834      60960.434      87120        
    269000   269000         1659.0468      304.71756      7583.0723      3040.0973      10623.17       60616.72       87120        
    269100   269100         1659.6913      305.81635      7634.5254      3051.0598      10685.585      60818.326      87120        
    269200   269200         1660.3353      298.47191      7722.6015      2977.7859      10700.387      61118.111      87120        
    269300   269300         1660.9883      303.88351      7678.5805      3031.7763      10710.357      61016.126      87120        
    269400   269400         1661.6319      299.33627      7670.4139      2986.4095      10656.823      60971.324      87120        
    269500   269500         1662.2691      296.98012      7665.2368      2962.9028      10628.14       60940.319      87120        
    269600   269600         1662.9204      299.04485      7664.1115      2983.5021      10647.614      60913.159      87120        
    269700   269700         1663.565       303.2706       7640.2467      3025.6614      10665.908      60801.821      87120        
    269800   269800         1664.2095      303.84029      7629.635       3031.3451      10660.98       60822.698      87120        
    269900   269900         1664.8517      298.72764      7614.3343      2980.3373      10594.672      60696.768      87120        
    270000   270000         1665.5045      292.43267      7647.6655      2917.5338      10565.199      60797.858      87120        
    270100   270100         1666.1431      297.37448      7678.482       2966.8371      10645.319      60990.538      87120        
    270200   270200         1666.7839      304.17243      7689.2352      3034.6587      10723.894      61064.646      87120        
    270300   270300         1667.4201      300.9085       7649.2346      3002.0952      10651.33       60833.078      87120        
    270400   270400         1668.0572      299.48263      7597.8008      2987.8697      10585.67       60639.014      87120        
    270500   270500         1668.6952      296.50703      7624.2424      2958.1828      10582.425      60730.915      87120        
    270600   270600         1669.3363      303.27648      7665.4678      3025.7201      10691.188      60956.168      87120        
    270700   270700         1669.9806      304.90003      7731.4717      3041.9178      10773.39       61279.297      87120        
    270800   270800         1670.6305      302.25575      7664.6447      3015.5365      10680.181      60913.926      87120        
    270900   270900         1671.2891      294.92301      7648.8126      2942.3794      10591.192      60838.639      87120        
    271000   271000         1671.9346      299.21462      7606.8958      2985.1958      10592.092      60706.757      87120        
    271100   271100         1672.578       298.84133      7639.8012      2981.4716      10621.273      60774.456      87120        
    271200   271200         1673.2207      306.2433       7649.9334      3055.3193      10705.253      60874.616      87120        
    271300   271300         1673.866       312.60904      7635.4689      3118.8289      10754.298      60854.577      87120        
    271400   271400         1674.5125      305.34674      7595.1081      3046.3746      10641.483      60653.029      87120        
    271500   271500         1675.1569      295.54797      7661.6888      2948.6145      10610.303      60898.606      87120        
    271600   271600         1675.8022      300.06788      7656.6318      2993.7086      10650.34       60914.811      87120        
    271700   271700         1676.4373      302.9747       7651.4019      3022.7093      10674.111      60871.843      87120        
    271800   271800         1677.0952      295.31983      7640.3219      2946.3384      10586.66       60792.315      87120        
    271900   271900         1677.7474      295.93032      7556.2289      2952.4291      10508.658      60450.22       87120        
    272000   272000         1678.4022      300.74901      7596.9388      3000.5041      10597.443      60644.744      87120        
    272100   272100         1679.0441      308.83144      7626.8244      3081.1406      10707.965      60870.886      87120        
    272200   272200         1679.6844      299.04652      7692.0798      2983.5187      10675.598      61076.523      87120        
    272300   272300         1680.3403      296.97728      7666.3824      2962.8744      10629.257      60934.312      87120        
    272400   272400         1680.9729      299.4876       7610.5619      2987.9192      10598.481      60678.286      87120        
    272500   272500         1681.6212      302.10131      7612.6427      3013.9957      10626.638      60664.962      87120        
    272600   272600         1682.2559      304.54947      7666.2802      3038.4204      10704.701      60918.084      87120        
    272700   272700         1682.9045      298.54498      7686.4483      2978.515       10664.963      61028.994      87120        
    272800   272800         1683.5525      297.34144      7663.161       2966.5076      10629.669      60906.934      87120        
    272900   272900         1684.1867      296.02256      7664.3626      2953.3494      10617.712      60857.972      87120        
    273000   273000         1684.8296      308.72543      7611.1883      3080.083       10691.271      60713.196      87120        
    273100   273100         1685.4579      301.90211      7690.3434      3012.0083      10702.352      60970.278      87120        
    273200   273200         1686.0952      300.29548      7639.958       2995.9793      10635.937      60842.723      87120        
    273300   273300         1686.751       297.13642      7655.69        2964.462       10620.152      60909.161      87120        
    273400   273400         1687.3868      304.78307      7641.0061      3040.7509      10681.757      60855.249      87120        
    273500   273500         1688.0346      304.77084      7644.0731      3040.629       10684.702      60828.632      87120        
    273600   273600         1688.6878      296.95818      7672.2925      2962.6838      10634.976      60930.426      87120        
    273700   273700         1689.3326      298.39913      7638.4754      2977.0598      10615.535      60798.25       87120        
    273800   273800         1689.9693      304.32768      7662.5329      3036.2077      10698.741      60855.932      87120        
    273900   273900         1690.6145      307.65181      7686.1647      3069.3717      10755.536      60930.947      87120        
    274000   274000         1691.2643      306.14024      7624.9912      3054.2912      10679.282      60780.21       87120        
    274100   274100         1691.8908      297.4364       7655.0497      2967.455       10622.505      60889.449      87120        
    274200   274200         1692.5391      298.738        7654.5157      2980.4406      10634.956      60914.315      87120        
    274300   274300         1693.177       305.70974      7641.6424      3049.9961      10691.639      60878.48       87120        
    274400   274400         1693.8057      304.50851      7646.5577      3038.0117      10684.569      60846.072      87120        
    274500   274500         1694.4519      291.42585      7646.1944      2907.489       10553.683      60808.057      87120        
    274600   274600         1695.1042      294.68719      7604.474       2940.0267      10544.501      60661.309      87120        
    274700   274700         1695.7533      299.40556      7657.7558      2987.1008      10644.857      60819.119      87120        
    274800   274800         1696.4068      304.45465      7648.9844      3037.4744      10686.459      60905.846      87120        
    274900   274900         1697.0625      298.82685      7665.3076      2981.3271      10646.635      60944.684      87120        
    275000   275000         1697.694       296.36729      7629.9717      2956.7886      10586.76       60774.531      87120        
    275100   275100         1698.3353      295.79249      7615.376       2951.054       10566.43       60713.331      87120        
    275200   275200         1698.9786      304.59741      7623.86        3038.8987      10662.759      60773.707      87120        
    275300   275300         1699.6225      300.07021      7702.9272      2993.7318      10696.659      61053.903      87120        
    275400   275400         1700.2553      298.48004      7660.1436      2977.8671      10638.011      60912.646      87120        
    275500   275500         1700.8967      296.57511      7601.0011      2958.862       10559.863      60629.43       87120        
    275600   275600         1701.5372      297.64943      7617.6193      2969.5803      10587.2        60724.36       87120        
    275700   275700         1702.1773      301.03734      7623.1677      3003.3807      10626.548      60725.852      87120        
    275800   275800         1702.8102      297.81486      7657.226       2971.2308      10628.457      60752.688      87120        
    275900   275900         1703.4561      298.29237      7674.7828      2975.9948      10650.778      60882.75       87120        
    276000   276000         1704.0933      308.86412      7629.5026      3081.4666      10710.969      60800.129      87120        
    276100   276100         1704.7285      299.92185      7668.1438      2992.2517      10660.396      60963.333      87120        
    276200   276200         1705.3747      297.36579      7619.7509      2966.7505      10586.501      60799.428      87120        
    276300   276300         1706.0084      296.22121      7630.5305      2955.3312      10585.862      60731.443      87120        
    276400   276400         1706.641       303.97421      7620.7874      3032.6812      10653.469      60728.979      87120        
    276500   276500         1707.2792      305.39263      7616.31        3046.8324      10663.142      60693.003      87120        
    276600   276600         1707.9229      298.40508      7648.6419      2977.1192      10625.761      60825.742      87120        
    276700   276700         1708.5665      295.32498      7671.0208      2946.3897      10617.41       60885.394      87120        
    276800   276800         1709.208       302.31503      7603.8997      3016.1279      10620.028      60655.572      87120        
    276900   276900         1709.8471      306.46447      7624.4783      3057.5259      10682.004      60772.459      87120        
    277000   277000         1710.475       306.77498      7676.4297      3060.6238      10737.054      60924.423      87120        
    277100   277100         1711.1172      301.4166       7662.8572      3007.1645      10670.022      60914.003      87120        
    277200   277200         1711.7599      298.2417       7664.2368      2975.4892      10639.726      60931.801      87120        
    277300   277300         1712.3911      300.32969      7645.899       2996.3206      10642.22       60852.405      87120        
    277400   277400         1713.0297      295.41763      7704.2416      2947.3141      10651.556      61008.344      87120        
    277500   277500         1713.6725      305.78864      7667.611       3050.7833      10718.394      60894.384      87120        
    277600   277600         1714.3127      306.38288      7636.0053      3056.7119      10692.717      60769.571      87120        
    277700   277700         1714.9786      296.27887      7679.3451      2955.9065      10635.252      60853.057      87120        
    277800   277800         1715.6309      299.7223       7657.7121      2990.2608      10647.973      60893.568      87120        
    277900   277900         1716.2819      295.18155      7716.1706      2944.9588      10661.129      61089.82       87120        
    278000   278000         1716.9382      302.26186      7695.7024      3015.5974      10711.3        61052.634      87120        
    278100   278100         1717.5655      308.08155      7683.3218      3073.6591      10756.981      61027.133      87120        
    278200   278200         1718.2034      299.96131      7661.1295      2992.6454      10653.775      60834.845      87120        
    278300   278300         1718.8383      292.83589      7687.1858      2921.5567      10608.742      60924.949      87120        
    278400   278400         1719.4711      299.71016      7671.9617      2990.1397      10662.101      60950.905      87120        
    278500   278500         1720.0987      301.66817      7703.3402      3009.6743      10713.015      61047.468      87120        
    278600   278600         1720.7519      306.31723      7666.534       3056.0569      10722.591      60933.79       87120        
    278700   278700         1721.3941      292.84293      7681.9247      2921.6269      10603.552      60932.591      87120        
    278800   278800         1722.0395      290.89528      7672.4546      2902.1956      10574.65       60786.742      87120        
    278900   278900         1722.6999      306.85864      7586.8976      3061.4585      10648.356      60628.824      87120        
    279000   279000         1723.3671      301.13431      7660.2822      3004.3481      10664.63       60912.693      87120        
    279100   279100         1724.0304      295.92783      7684.1853      2952.4043      10636.59       60956.089      87120        
    279200   279200         1724.6912      298.54295      7654.6819      2978.4947      10633.177      60939.891      87120        
    279300   279300         1725.3438      309.69882      7606.3968      3089.7943      10696.191      60685.032      87120        
    279400   279400         1725.9967      311.52713      7642.7071      3108.0349      10750.742      60827.357      87120        
    279500   279500         1726.6498      297.77199      7650.6351      2970.803       10621.438      60828.457      87120        
    279600   279600         1727.2949      298.44619      7634.1966      2977.5294      10611.726      60731.348      87120        
    279700   279700         1727.9496      300.20345      7661.8696      2995.0611      10656.931      60894.759      87120        
    279800   279800         1728.6076      306.43273      7662.9616      3057.2093      10720.171      60986.473      87120        
    279900   279900         1729.2543      308.95712      7638.8874      3082.3945      10721.282      60824.323      87120        
    280000   280000         1729.8986      298.01112      7595.2101      2973.1888      10568.399      60708.779      87120        
    280100   280100         1730.535       292.23881      7629.8356      2915.5997      10545.435      60759.5        87120        
    280200   280200         1731.1708      301.30989      7646.3891      3006.0999      10652.489      60835.478      87120        
    280300   280300         1731.8039      303.45582      7679.5793      3027.5093      10707.089      60995.732      87120        
    280400   280400         1732.4429      305.19931      7646.8758      3044.9037      10691.779      60923.001      87120        
    280500   280500         1733.0887      295.15586      7648.142       2944.7025      10592.845      60821.791      87120        
    280600   280600         1733.7236      295.07312      7656.8685      2943.877       10600.745      60889.992      87120        
    280700   280700         1734.3635      297.30584      7663.181       2966.1524      10629.333      60891.747      87120        
    280800   280800         1735.0046      301.41023      7644.4609      3007.1009      10651.562      60858.194      87120        
    280900   280900         1735.6545      304.62277      7622.9336      3039.1517      10662.085      60813.495      87120        
    281000   281000         1736.3045      296.40947      7654.9733      2957.2095      10612.183      60862.472      87120        
    281100   281100         1736.9538      291.50241      7666.0265      2908.2528      10574.279      60888.459      87120        
    281200   281200         1737.6014      300.03987      7648.391       2993.4291      10641.82       60846.301      87120        
    281300   281300         1738.2428      304.3867       7648.7396      3036.7965      10685.536      60794.033      87120        
    281400   281400         1738.889       299.78409      7644.955       2990.8773      10635.832      60815.783      87120        
    281500   281500         1739.5245      299.75486      7636.3214      2990.5857      10626.907      60768.395      87120        
    281600   281600         1740.1743      298.55395      7653.0341      2978.6045      10631.639      60802.018      87120        
    281700   281700         1740.8093      296.73308      7661.016       2960.4381      10621.454      60869.957      87120        
    281800   281800         1741.4466      305.05491      7651.6779      3043.463       10695.141      60867.711      87120        
    281900   281900         1742.0854      301.54279      7708.6289      3008.4234      10717.052      61051.423      87120        
    282000   282000         1742.7302      302.62459      7644.0396      3019.2163      10663.256      60890.774      87120        
    282100   282100         1743.3759      298.7286       7602.9031      2980.3469      10583.25       60672.247      87120        
    282200   282200         1744.0316      295.92432      7628.3834      2952.3692      10580.753      60748.849      87120        
    282300   282300         1744.6663      301.01045      7657.1455      3003.1124      10660.258      60940.874      87120        
    282400   282400         1745.313       306.18282      7672.7262      3054.7159      10727.442      60927.819      87120        
    282500   282500         1745.9952      302.96774      7655.5029      3022.6398      10678.143      60875.249      87120        
    282600   282600         1746.6633      296.47439      7663.6574      2957.8571      10621.515      60863.913      87120        
    282700   282700         1747.308       296.8941       7617.6541      2962.0445      10579.699      60713.062      87120        
    282800   282800         1747.9708      297.20417      7626.4419      2965.138       10591.58       60787.489      87120        
    282900   282900         1748.6361      306.02521      7637.3439      3053.1435      10690.487      60785.615      87120        
    283000   283000         1749.2864      304.47799      7655.266       3037.7073      10692.973      60909.494      87120        
    283100   283100         1749.9238      304.75989      7602.3948      3040.5197      10642.915      60725.385      87120        
    283200   283200         1750.5727      295.25016      7667.6455      2945.6433      10613.289      60872.573      87120        
    283300   283300         1751.2119      296.00119      7680.58        2953.1362      10633.716      60971.365      87120        
    283400   283400         1751.8569      305.29892      7638.402       3045.8975      10684.3        60760.388      87120        
    283500   283500         1752.5066      302.26797      7648.4788      3015.6584      10664.137      60775.381      87120        
    283600   283600         1753.1528      294.19781      7639.5851      2935.1442      10574.729      60810.442      87120        
    283700   283700         1753.8022      294.67655      7651.8528      2939.9206      10591.773      60801.047      87120        
    283800   283800         1754.4449      294.63044      7699.7499      2939.4605      10639.21       61069.182      87120        
    283900   283900         1755.1152      302.44146      7659.3625      3017.3893      10676.752      60873.832      87120        
    284000   284000         1755.7741      302.94135      7639.0313      3022.3766      10661.408      60810.364      87120        
    284100   284100         1756.4765      295.40934      7650.7012      2947.2314      10597.933      60846.316      87120        
    284200   284200         1757.1258      291.38614      7660.4039      2907.0928      10567.497      60790.185      87120        
    284300   284300         1757.7845      303.80921      7662.7472      3031.035       10693.782      60875.023      87120        
    284400   284400         1758.4407      305.66964      7681.7794      3049.596       10731.375      60992.85       87120        
    284500   284500         1759.0901      298.32568      7706.4842      2976.3271      10682.811      61029.863      87120        
    284600   284600         1759.7508      292.30149      7711.3447      2916.2251      10627.57       61031.132      87120        
    284700   284700         1760.4134      301.11027      7625.8417      3004.1083      10629.95       60799.283      87120        
    284800   284800         1761.0811      302.75989      7637.309       3020.5662      10657.875      60829.289      87120        
    284900   284900         1761.7397      314.17304      7658.0477      3134.4326      10792.48       60913.861      87120        
    285000   285000         1762.4075      304.7756       7723.7946      3040.6764      10764.471      61124.487      87120        
    285100   285100         1763.053       304.73043      7647.6003      3040.2258      10687.826      60865.888      87120        
    285200   285200         1763.7025      302.145        7611.2213      3014.4315      10625.653      60645.761      87120        
    285300   285300         1764.3342      297.33285      7642.6375      2966.4218      10609.059      60787.256      87120        
    285400   285400         1764.9724      296.57113      7688.5126      2958.8223      10647.335      60988.496      87120        
    285500   285500         1765.6111      309.23472      7671.9568      3085.1641      10757.121      60931.747      87120        
    285600   285600         1766.2598      301.17996      7694.834       3004.8036      10699.638      61045.549      87120        
    285700   285700         1766.902       297.59348      7636.6079      2969.0221      10605.63       60746.268      87120        
    285800   285800         1767.561       300.21641      7620.8708      2995.1904      10616.061      60745.829      87120        
    285900   285900         1768.2231      300.18334      7678.1205      2994.8605      10672.981      60967.586      87120        
    286000   286000         1768.8933      299.8534       7715.4706      2991.5688      10707.039      61114.6        87120        
    286100   286100         1769.5532      300.73042      7672.0448      3000.3186      10672.363      60960.107      87120        
    286200   286200         1770.2155      294.49129      7611.4012      2938.0723      10549.473      60654.956      87120        
    286300   286300         1770.8976      292.00172      7636.2616      2913.2343      10549.496      60726.635      87120        
    286400   286400         1771.5755      299.15801      7678.031       2984.631       10662.662      60980.171      87120        
    286500   286500         1772.2471      301.93673      7705.6271      3012.3537      10717.981      61079.097      87120        
    286600   286600         1772.93        301.79047      7705.6439      3010.8945      10716.538      61112.433      87120        
    286700   286700         1773.5874      297.14191      7653.0089      2964.5169      10617.526      60921.988      87120        
    286800   286800         1774.2349      291.37586      7622.9779      2906.9903      10529.968      60722.379      87120        
    286900   286900         1774.8913      295.81243      7672.2612      2951.253       10623.514      60930.726      87120        
    287000   287000         1775.5381      303.30107      7714.3314      3025.9654      10740.297      61123.68       87120        
    287100   287100         1776.1853      304.31104      7690.2558      3036.0416      10726.297      61030.213      87120        
    287200   287200         1776.8232      295.15892      7686.4137      2944.733       10631.147      61010.58       87120        
    287300   287300         1777.4874      296.16397      7642.6089      2954.7602      10597.369      60786.974      87120        
    287400   287400         1778.1373      302.35155      7646.2922      3016.4922      10662.784      60751.31       87120        
    287500   287500         1778.8106      304.1752       7665.0463      3034.6864      10699.733      60949.535      87120        
    287600   287600         1779.4641      301.58092      7693.8853      3008.8038      10702.689      61056.524      87120        
    287700   287700         1780.1274      302.66412      7648.4944      3019.6107      10668.105      60961.234      87120        
    287800   287800         1780.7825      293.26901      7702.7525      2925.8778      10628.63       61094.978      87120        
    287900   287900         1781.4386      301.57887      7651.7828      3008.7834      10660.566      60834.689      87120        
    288000   288000         1782.0953      301.43645      7650.651       3007.3625      10658.014      60826.677      87120        
    288100   288100         1782.7368      305.01341      7625.9358      3043.0491      10668.985      60751.257      87120        
    288200   288200         1783.3815      297.78065      7709.6931      2970.8894      10680.583      61063.168      87120        
    288300   288300         1784.0356      297.02813      7701.7901      2963.3817      10665.172      61090.011      87120        
    288400   288400         1784.6716      302.21081      7627.3676      3015.0881      10642.456      60761.959      87120        
    288500   288500         1785.323       309.71859      7564.1297      3089.9915      10654.121      60560.429      87120        
    288600   288600         1785.979       301.05023      7602.9573      3003.5092      10606.466      60618.896      87120        
    288700   288700         1786.6298      292.66335      7656.4938      2919.8353      10576.329      60841.028      87120        
    288800   288800         1787.2823      299.39986      7658.9456      2987.0439      10645.989      60962.804      87120        
    288900   288900         1787.9361      304.03161      7669.5831      3033.2538      10702.837      60983.179      87120        
    289000   289000         1788.5926      307.28343      7615.1539      3065.6965      10680.85       60743.785      87120        
    289100   289100         1789.2365      296.7301       7588.1635      2960.4084      10548.572      60574.047      87120        
    289200   289200         1789.8784      298.64493      7567.9956      2979.5122      10547.508      60444.943      87120        
    289300   289300         1790.5286      300.62458      7650.9659      2999.2626      10650.229      60864.183      87120        
    289400   289400         1791.1862      302.00506      7687.0994      3013.0354      10700.135      61021.78       87120        
    289500   289500         1791.8391      301.30218      7622.2404      3006.0229      10628.263      60799.435      87120        
    289600   289600         1792.5023      291.63708      7653.5068      2909.5964      10563.103      60827.313      87120        
    289700   289700         1793.1613      296.96295      7604.3035      2962.7314      10567.035      60669.742      87120        
    289800   289800         1793.8062      300.77157      7611.5031      3000.7292      10612.232      60654.083      87120        
    289900   289900         1794.4645      301.03093      7655.2825      3003.3167      10658.599      60836.375      87120        
    290000   290000         1795.1249      301.92722      7636.7306      3012.2588      10648.989      60787.725      87120        
    290100   290100         1795.7905      288.12635      7668.9995      2874.5707      10543.57       60902.633      87120        
    290200   290200         1796.4281      294.76691      7631.0283      2940.822       10571.85       60732.537      87120        
    290300   290300         1797.0737      300.14411      7634.8973      2994.4691      10629.366      60751.971      87120        
    290400   290400         1797.7171      304.7521       7616.6124      3040.442       10657.054      60723.156      87120        
    290500   290500         1798.3663      300.6182       7660.7545      2999.199       10659.954      60883.348      87120        
    290600   290600         1799.0179      295.50764      7650.7503      2948.2121      10598.962      60852.818      87120        
    290700   290700         1799.669       294.02606      7660.2368      2933.4308      10593.668      60883.661      87120        
    290800   290800         1800.3271      304.38679      7669.2545      3036.7974      10706.052      60916.856      87120        
    290900   290900         1800.9822      303.96271      7640.8774      3032.5664      10673.444      60860.897      87120        
    291000   291000         1801.639       298.93313      7636.7124      2982.3874      10619.1        60776.701      87120        
    291100   291100         1802.2802      297.19609      7657.2884      2965.0574      10622.346      60823.075      87120        
    291200   291200         1802.9248      298.32424      7670.8668      2976.3127      10647.18       60911.627      87120        
    291300   291300         1803.5716      304.1322       7671.8656      3034.2574      10706.123      60950.005      87120        
    291400   291400         1804.2122      304.02852      7678.6086      3033.223       10711.832      60903.715      87120        
    291500   291500         1804.8668      301.5368       7628.0555      3008.3636      10636.419      60724.582      87120        
    291600   291600         1805.5344      296.23664      7623.459       2955.4852      10578.944      60695.734      87120        
    291700   291700         1806.2039      296.75894      7641.7262      2960.6961      10602.422      60786.67       87120        
    291800   291800         1806.8587      302.99602      7642.2177      3022.922       10665.14       60800.985      87120        
    291900   291900         1807.5169      299.8346       7680.1747      2991.3812      10671.556      60968.397      87120        
    292000   292000         1808.1939      300.75855      7670.0205      3000.5992      10670.62       60923.295      87120        
    292100   292100         1808.8541      300.71599      7629.5784      3000.1746      10629.753      60739.574      87120        
    292200   292200         1809.5113      294.01378      7655.435       2933.3082      10588.743      60857.926      87120        
    292300   292300         1810.183       304.41104      7653.8186      3037.0393      10690.858      60868.58       87120        
    292400   292400         1810.8513      309.166        7625.9648      3084.4785      10710.443      60705.15       87120        
    292500   292500         1811.5131      304.94331      7596.4127      3042.3497      10638.762      60679.428      87120        
    292600   292600         1812.1786      295.71581      7647.2469      2950.289       10597.536      60822.637      87120        
    292700   292700         1812.8574      298.88756      7632.2254      2981.9328      10614.158      60793.128      87120        
    292800   292800         1813.525       301.56866      7654.9966      3008.6815      10663.678      60905.429      87120        
    292900   292900         1814.1962      303.70847      7689.1283      3030.0299      10719.158      60951.76       87120        
    293000   293000         1814.865       308.35363      7707.8494      3076.3736      10784.223      61063.969      87120        
    293100   293100         1815.5376      305.35115      7670.3662      3046.4186      10716.785      60948.439      87120        
    293200   293200         1816.2034      293.16752      7710.5146      2924.8653      10635.38       61034.932      87120        
    293300   293300         1816.8853      303.20095      7628.094       3024.9665      10653.061      60848.249      87120        
    293400   293400         1817.5431      292.42965      7723.8613      2917.5037      10641.365      61151.001      87120        
    293500   293500         1818.2106      302.85099      7675.8947      3021.475       10697.37       60960.526      87120        
    293600   293600         1818.8982      305.34702      7640.1208      3046.3773      10686.498      60813.82       87120        
    293700   293700         1819.5534      294.37752      7660.6586      2936.9371      10597.596      60815.044      87120        
    293800   293800         1820.2112      290.20402      7673.7467      2895.2991      10569.046      60949.291      87120        
    293900   293900         1820.853       295.82892      7731.8922      2951.4174      10683.31       61133.976      87120        
    294000   294000         1821.5027      303.80455      7697.5752      3030.9885      10728.564      61016.174      87120        
    294100   294100         1822.1404      299.74469      7633.2726      2990.4842      10623.757      60832.243      87120        
    294200   294200         1822.7802      296.81064      7610.3205      2961.2119      10571.532      60666.545      87120        
    294300   294300         1823.4245      300.70162      7606.9025      3000.0313      10606.934      60681.802      87120        
    294400   294400         1824.069       302.99796      7660.3017      3022.9413      10683.243      60954.435      87120        
    294500   294500         1824.7171      304.68827      7685.5134      3039.8052      10725.319      60980.167      87120        
    294600   294600         1825.3695      292.20294      7685.1225      2915.2419      10600.364      61000.525      87120        
    294700   294700         1826.005       294.31956      7649.182       2936.3589      10585.541      60812.987      87120        
    294800   294800         1826.6612      298.73238      7657.0146      2980.3846      10637.399      60847.666      87120        
    294900   294900         1827.3095      305.88491      7630.7638      3051.7437      10682.508      60790.952      87120        
    295000   295000         1827.9677      300.98899      7655.9389      3002.8983      10658.837      60811.26       87120        
    295100   295100         1828.6161      298.35932      7643.0328      2976.6627      10619.695      60841.706      87120        
    295200   295200         1829.2603      300.23197      7649.9248      2995.3457      10645.271      60897.914      87120        
    295300   295300         1829.9078      296.60159      7706.4627      2959.1262      10665.589      61013.083      87120        
    295400   295400         1830.5521      302.54588      7682.7976      3018.4311      10701.229      60981.72       87120        
    295500   295500         1831.2065      302.01106      7690.3592      3013.0953      10703.454      61039.126      87120        
    295600   295600         1831.8557      300.64761      7624.0239      2999.4924      10623.516      60782.357      87120        
    295700   295700         1832.5139      294.99445      7637.7797      2943.0921      10580.872      60893.863      87120        
    295800   295800         1833.1545      302.80829      7635.7331      3021.0491      10656.782      60848.628      87120        
    295900   295900         1833.8068      299.34608      7666.6525      2986.5074      10653.16       60926.11       87120        
    296000   296000         1834.4491      303.3487       7614.9353      3026.4406      10641.376      60756.813      87120        
    296100   296100         1835.0803      304.2967       7633.4238      3035.8985      10669.322      60800.104      87120        
    296200   296200         1835.7125      308.02747      7668.5155      3073.1197      10741.635      60925.149      87120        
    296300   296300         1836.3351      295.81413      7760.5799      2951.2699      10711.85       61276.52       87120        
    296400   296400         1836.9705      298.11992      7667.6595      2974.2742      10641.934      60938.2        87120        
    296500   296500         1837.5986      299.64868      7651.4157      2989.5264      10640.942      60910.77       87120        
    296600   296600         1838.23        303.04599      7670.0189      3023.4206      10693.439      60917.288      87120        
    296700   296700         1838.8762      304.85336      7699.7426      3041.4523      10741.195      61042.451      87120        
    296800   296800         1839.5338      297.65217      7688.3699      2969.6076      10657.977      60996.802      87120        
    296900   296900         1840.1903      297.48957      7676.669       2967.9854      10644.654      60983.784      87120        
    297000   297000         1840.8416      295.58619      7739.4799      2948.9958      10688.476      61229.428      87120        
    297100   297100         1841.4812      297.40053      7752.0622      2967.0971      10719.159      61181.676      87120        
    297200   297200         1842.1372      303.51285      7703.4069      3028.0782      10731.485      61035.253      87120        
    297300   297300         1842.7847      303.23894      7660.8048      3025.3456      10686.15       60907.541      87120        
    297400   297400         1843.4294      295.83446      7638.0445      2951.4727      10589.517      60822.594      87120        
    297500   297500         1844.0715      294.52266      7703.3264      2938.3852      10641.712      61127.463      87120        
    297600   297600         1844.7155      299.38338      7753.0401      2986.8795      10739.92       61307.836      87120        
    297700   297700         1845.3605      302.97096      7710.2441      3022.672       10732.916      61114.45       87120        
    297800   297800         1846.0031      304.574        7629.1664      3038.6651      10667.832      60848.249      87120        
    297900   297900         1846.6451      292.83767      7675.0398      2921.5744      10596.614      60906.894      87120        
    298000   298000         1847.2954      295.54373      7675.3273      2948.5722      10623.9        60980.513      87120        
    298100   298100         1847.9357      301.95064      7755.6758      3012.4925      10768.168      61302.334      87120        
    298200   298200         1848.5834      306.82855      7715.036       3061.1582      10776.194      61132.304      87120        
    298300   298300         1849.2434      301.74174      7657.8065      3010.4083      10668.215      60899.638      87120        
    298400   298400         1849.8953      297.52561      7629.1928      2968.345       10597.538      60745.847      87120        
    298500   298500         1850.5474      302.03357      7590.9801      3013.3198      10604.3        60630.27       87120        
    298600   298600         1851.2044      300.4384       7641.4157      2997.4052      10638.821      60876.831      87120        
    298700   298700         1851.8604      298.66793      7721.8967      2979.7416      10701.638      61139.047      87120        
    298800   298800         1852.4996      310.81597      7636.817       3100.9399      10737.757      60810.885      87120        
    298900   298900         1853.1386      294.63106      7682.3786      2939.4667      10621.845      60968.264      87120        
    299000   299000         1853.7674      298.57931      7642.8519      2978.8575      10621.709      60783.428      87120        
    299100   299100         1854.3937      298.82063      7664.0008      2981.265       10645.266      60860.129      87120        
    299200   299200         1855.0296      300.21556      7675.4798      2995.182       10670.662      60965.051      87120        
    299300   299300         1855.6527      310.04953      7673.8748      3093.2932      10767.168      60972.377      87120        
    299400   299400         1856.2895      302.32213      7699.9222      3016.1987      10716.121      61032.614      87120        
    299500   299500         1856.9236      299.09414      7652.3196      2983.9938      10636.313      60874.442      87120        
    299600   299600         1857.5744      299.32331      7639.3309      2986.2802      10625.611      60737.433      87120        
    299700   299700         1858.218       302.01384      7662.9481      3013.123       10676.071      60920.8        87120        
    299800   299800         1858.8672      307.92954      7715.7295      3072.1426      10787.872      61116.033      87120        
    299900   299900         1859.5149      306.78084      7720.8992      3060.6823      10781.581      61124.149      87120        
    300000   300000         1860.1681      294.97738      7714.8324      2942.9218      10657.754      61103.932      87120        
    300100   300100         1860.8042      299.06776      7646.2932      2983.7306      10630.024      60778.259      87120        
    300200   300200         1861.4573      301.4319       7662.1134      3007.3171      10669.43       60898.486      87120        
    300300   300300         1862.1154      299.55264      7737.8438      2988.5681      10726.412      61216.663      87120        
    300400   300400         1862.7673      306.64998      7735.4274      3059.3767      10794.804      61211.916      87120        
    300500   300500         1863.4372      306.56254      7749.4505      3058.5043      10807.955      61316.358      87120        
    300600   300600         1864.1127      303.65612      7664.3664      3029.5077      10693.874      60996.791      87120        
    300700   300700         1864.7754      293.4701       7695.3027      2927.8841      10623.187      61003.36       87120        
    300800   300800         1865.4425      298.02285      7670.7583      2973.3058      10644.064      60919.709      87120        
    300900   300900         1866.0903      301.98629      7674.9054      3012.8481      10687.753      61000.9        87120        
    301000   301000         1866.7751      297.00591      7700.1364      2963.16        10663.296      61049.065      87120        
    301100   301100         1867.4167      291.5104       7706.3049      2908.3326      10614.638      61092.956      87120        
    301200   301200         1868.0607      302.98443      7641.9852      3022.8063      10664.791      60786.023      87120        
    301300   301300         1868.7067      303.55238      7663.4001      3028.4726      10691.873      60875.583      87120        
    301400   301400         1869.3545      301.6289       7649.0974      3009.2825      10658.38       60895.452      87120        
    301500   301500         1869.9981      298.04887      7669.7652      2973.5654      10643.331      60856.975      87120        
    301600   301600         1870.6496      297.66732      7690.4217      2969.7587      10660.18       61084.129      87120        
    301700   301700         1871.2932      308.2403       7674.5895      3075.243       10749.833      61014.129      87120        
    301800   301800         1871.9517      305.11593      7683.37        3044.0718      10727.442      60956.754      87120        
    301900   301900         1872.6083      296.92281      7686.3059      2962.3309      10648.637      60955.01       87120        
    302000   302000         1873.2471      297.56308      7667.264       2968.7187      10635.983      60816.734      87120        
    302100   302100         1873.8929      295.89149      7706.585       2952.0417      10658.627      60984.251      87120        
    302200   302200         1874.5602      302.11571      7677.8793      3014.1393      10692.019      61018.467      87120        
    302300   302300         1875.2151      304.66842      7674.4657      3039.6071      10714.073      60943.193      87120        
    302400   302400         1875.8664      299.86735      7677.8686      2991.7079      10669.577      60966.62       87120        
    302500   302500         1876.5318      295.11957      7654.9743      2944.3404      10599.315      60861.937      87120        
    302600   302600         1877.1984      295.67962      7693.0692      2949.928       10642.997      60970.596      87120        
    302700   302700         1877.8717      306.47837      7682.2228      3057.6646      10739.887      61057.705      87120        
    302800   302800         1878.5771      298.67059      7718.9372      2979.7682      10698.705      61072.934      87120        
    302900   302900         1879.3264      296.75934      7695.4484      2960.7         10656.148      60967.408      87120        
    303000   303000         1880.076       301.27952      7659.461       3005.7968      10665.258      60913.201      87120        
    303100   303100         1880.8048      311.81338      7661.7575      3110.8907      10772.648      60859.897      87120        
    303200   303200         1881.5455      303.31699      7695.9954      3026.1243      10722.12       61037.332      87120        
    303300   303300         1882.3127      296.82083      7728.7046      2961.3135      10690.018      61160.323      87120        
    303400   303400         1883.1048      300.38025      7677.1263      2996.8251      10673.951      60922.951      87120        
    303500   303500         1883.8884      299.5278       7633.1856      2988.3203      10621.506      60826.803      87120        
    303600   303600         1884.6385      298.135        7625.6773      2974.4247      10600.102      60746.525      87120        
    303700   303700         1885.4373      304.14966      7631.3886      3034.4316      10665.82       60751.703      87120        
    303800   303800         1886.2565      302.56319      7678.0738      3018.6038      10696.678      60969.03       87120        
    303900   303900         1887.0675      290.30676      7712.2279      2896.3241      10608.552      61013.439      87120        
    304000   304000         1887.8647      296.77944      7662.9693      2960.9006      10623.87       60884.431      87120        
    304100   304100         1888.5736      298.36674      7665.9818      2976.7368      10642.719      60907.982      87120        
    304200   304200         1889.3281      302.49546      7649.9715      3017.928       10667.899      60816.109      87120        
    304300   304300         1890.0073      303.72138      7643.6964      3030.1588      10673.855      60863.387      87120        
    304400   304400         1890.6669      298.62959      7667.0183      2979.3591      10646.377      60918.746      87120        
    304500   304500         1891.3217      294.26221      7700.785       2935.7868      10636.572      61076.299      87120        
    304600   304600         1891.986       300.43077      7653.0792      2997.3291      10650.408      60864.161      87120        
    304700   304700         1892.6326      303.59865      7637.4007      3028.9342      10666.335      60719.052      87120        
    304800   304800         1893.293       301.29236      7648.6463      3005.925       10654.571      60814.563      87120        
    304900   304900         1893.9552      294.07059      7658.1074      2933.875       10591.982      60886.165      87120        
    305000   305000         1894.5939      296.27333      7668.0443      2955.8513      10623.896      60884.554      87120        
    305100   305100         1895.279       298.65281      7702.019       2979.5908      10681.61       61084.182      87120        
    305200   305200         1895.9368      297.50839      7729.0595      2968.1732      10697.233      61085.684      87120        
    305300   305300         1896.5842      306.30808      7628.8579      3055.9657      10684.824      60731.51       87120        
    305400   305400         1897.2304      301.82198      7653.4326      3011.2089      10664.641      60893.054      87120        
    305500   305500         1897.8806      299.86527      7659.855       2991.6872      10651.542      60874.207      87120        
    305600   305600         1898.5347      297.15497      7681.3422      2964.6472      10645.989      60991.156      87120        
    305700   305700         1899.1905      306.76369      7634.6466      3060.5112      10695.158      60811.219      87120        
    305800   305800         1899.8446      307.86683      7660.3118      3071.517       10731.829      60821.9        87120        
    305900   305900         1900.5102      298.2089       7655.7132      2975.162       10630.875      60904.521      87120        
    306000   306000         1901.1683      294.73005      7668.8352      2940.4543      10609.289      60918.577      87120        
    306100   306100         1901.8186      299.52765      7689.1948      2988.3188      10677.514      60999.905      87120        
    306200   306200         1902.4769      302.83244      7695.221       3021.29        10716.511      61056.299      87120        
    306300   306300         1903.1189      300.80449      7687.511       3001.0576      10688.569      60937.479      87120        
    306400   306400         1903.7748      299.01179      7659.1175      2983.1722      10642.29       60947.523      87120        
    306500   306500         1904.4465      295.89063      7649.7498      2952.0331      10601.783      60868.613      87120        
    306600   306600         1905.1082      297.56045      7655.5368      2968.6926      10624.229      60753.662      87120        
    306700   306700         1905.7626      304.87512      7639.4076      3041.6693      10681.077      60827.469      87120        
    306800   306800         1906.4084      302.53008      7680.4972      3018.2734      10698.771      60922.33       87120        
    306900   306900         1907.0789      295.62545      7693.8253      2949.3875      10643.213      60953.656      87120        
    307000   307000         1907.7286      297.43847      7652.5809      2967.4756      10620.056      60891.365      87120        
    307100   307100         1908.3873      300.35736      7638.0829      2996.5967      10634.68       60795.9        87120        
    307200   307200         1909.0534      306.00508      7678.5683      3052.9427      10731.511      60949.23       87120        
    307300   307300         1909.709       302.75015      7699.2981      3020.469       10719.767      61042.057      87120        
    307400   307400         1910.3616      295.00513      7727.8805      2943.1987      10671.079      61086.16       87120        
    307500   307500         1911.0171      298.8478       7710.4464      2981.5361      10691.983      61136.996      87120        
    307600   307600         1911.6626      297.39246      7715.3622      2967.0165      10682.379      61036.204      87120        
    307700   307700         1912.3157      295.3168       7633.1826      2946.3082      10579.491      60755.403      87120        
    307800   307800         1912.9673      295.91882      7578.2054      2952.3144      10530.52       60575.957      87120        
    307900   307900         1913.6214      297.19244      7659.374       2965.021       10624.395      60786.854      87120        
    308000   308000         1914.2744      301.13575      7686.5055      3004.3625      10690.868      61040.478      87120        
    308100   308100         1914.9195      304.3291       7631.4124      3036.2218      10667.634      60798.359      87120        
    308200   308200         1915.5531      297.4185       7646.6729      2967.2763      10613.949      60773.473      87120        
    308300   308300         1916.2074      305.04411      7608.6301      3043.3553      10651.985      60751.632      87120        
    308400   308400         1916.8698      307.54976      7695.7564      3068.3536      10764.11       60966.697      87120        
    308500   308500         1917.5348      312.83034      7634.8488      3121.0367      10755.886      60835.779      87120        
    308600   308600         1918.1932      302.42996      7649.3975      3017.2745      10666.672      60876.573      87120        
    308700   308700         1918.8467      296.03602      7684.0683      2953.4837      10637.552      60896.435      87120        
    308800   308800         1919.4874      299.48427      7699.1848      2987.8861      10687.071      61032.29       87120        
    308900   308900         1920.1402      304.301        7701.9544      3035.9415      10737.896      61014.213      87120        
    309000   309000         1920.7942      306.30782      7642.4812      3055.9631      10698.444      60759.189      87120        
    309100   309100         1921.4402      294.35293      7701.1374      2936.6918      10637.829      61037.353      87120        
    309200   309200         1922.0855      294.68234      7748.0249      2939.9783      10688.003      61157.039      87120        
    309300   309300         1922.7159      300.98632      7715.8123      3002.8717      10718.684      61103.482      87120        
    309400   309400         1923.3571      303.1582       7662.0911      3024.54        10686.631      60944.758      87120        
    309500   309500         1924.0076      293.32945      7663.8502      2926.4808      10590.331      60793.124      87120        
    309600   309600         1924.6591      294.96719      7649.3629      2942.8202      10592.183      60809.552      87120        
    309700   309700         1925.3148      301.09003      7739.3675      3003.9063      10743.274      61138.831      87120        
    309800   309800         1925.9781      307.87788      7665.1003      3071.6272      10736.727      60842.118      87120        
    309900   309900         1926.6471      298.73879      7643.3812      2980.4486      10623.83       60826.176      87120        
    310000   310000         1927.3009      293.92682      7672.6238      2932.4406      10605.064      60873.07       87120        
    310100   310100         1927.958       300.01482      7709.0325      2993.1793      10702.212      61006.311      87120        
    310200   310200         1928.6214      305.96911      7702.7602      3052.5838      10755.344      61131.408      87120        
    310300   310300         1929.286       302.2046       7707.0833      3015.0262      10722.11       61095.284      87120        
    310400   310400         1929.9464      298.59142      7681.2524      2978.9783      10660.231      60919.953      87120        
    310500   310500         1930.607       299.6959       7647.1021      2989.9975      10637.1        60788.321      87120        
    310600   310600         1931.2687      300.37751      7707.3935      2996.7977      10704.191      61031.869      87120        
    310700   310700         1931.9233      304.92202      7716.4584      3042.1372      10758.596      61075.457      87120        
    310800   310800         1932.5895      297.7359       7708.5522      2970.443       10678.995      60984.386      87120        
    310900   310900         1933.239       296.44237      7693.2226      2957.5377      10650.76       60980.243      87120        
    311000   311000         1933.8868      297.79679      7695.6865      2971.0505      10666.737      60948.759      87120        
    311100   311100         1934.5377      299.81993      7690.8082      2991.2348      10682.043      60949.164      87120        
    311200   311200         1935.1784      299.30235      7705.4596      2986.071       10691.531      61080.451      87120        
    311300   311300         1935.8207      300.36331      7721.2608      2996.6561      10717.917      61162.12       87120        
    311400   311400         1936.4792      301.64539      7707.0171      3009.447       10716.464      61079.678      87120        
    311500   311500         1937.1418      301.11409      7635.0251      3004.1464      10639.171      60813.09       87120        
    311600   311600         1937.7912      291.57284      7654.6094      2908.9555      10563.565      60765.557      87120        
    311700   311700         1938.4413      296.27112      7673.8495      2955.8292      10629.679      60897.076      87120        
    311800   311800         1939.1071      301.12423      7757.8071      3004.2476      10762.055      61268.752      87120        
    311900   311900         1939.7653      307.4836       7690.095       3067.6935      10757.789      61046.269      87120        
    312000   312000         1940.4223      297.87527      7680.1231      2971.8335      10651.957      60911.048      87120        
    312100   312100         1941.0811      294.96365      7650.5137      2942.7848      10593.298      60816.427      87120        
    312200   312200         1941.7413      309.37947      7598.0477      3086.6082      10684.656      60687.757      87120        
    312300   312300         1942.4157      309.46155      7761.5994      3087.4271      10849.027      61236.88       87120        
    312400   312400         1943.0762      303.29577      7747.9415      3025.9125      10773.854      61246.3        87120        
    312500   312500         1943.7294      301.2771       7680.8222      3005.7727      10686.595      61003.603      87120        
    312600   312600         1944.405       297.11571      7657.7119      2964.2554      10621.967      60841.315      87120        
    312700   312700         1945.0749      297.61903      7663.7535      2969.2769      10633.03       60865.844      87120        
    312800   312800         1945.742       307.54405      7675.641       3068.2966      10743.938      60962.443      87120        
    312900   312900         1946.4013      298.57626      7792.9627      2978.8271      10771.79       61453.604      87120        
    313000   313000         1947.0564      296.9442       7702.5283      2962.5443      10665.073      61073.6        87120        
    313100   313100         1947.6968      291.57703      7677.3495      2908.9973      10586.347      60860.485      87120        
    313200   313200         1948.3315      297.4171       7657.3649      2967.2624      10624.627      60860.064      87120        
    313300   313300         1948.9725      301.43569      7691.9849      3007.3549      10699.34       60984.321      87120        
    313400   313400         1949.6234      302.86664      7697.631       3021.6311      10719.262      61011.827      87120        
    313500   313500         1950.2768      297.58527      7705.4502      2968.9402      10674.39       61119.853      87120        
    313600   313600         1950.9227      290.20729      7718.5065      2895.3318      10613.838      61051.888      87120        
    313700   313700         1951.5599      302.95673      7687.6518      3022.53        10710.182      60948.058      87120        
    313800   313800         1952.2154      301.49195      7723.029       3007.9162      10730.945      61113          87120        
    313900   313900         1952.8795      301.98801      7686.2279      3012.8653      10699.093      60984.012      87120        
    314000   314000         1953.5304      296.45999      7683.7029      2957.7135      10641.416      61001.631      87120        
    314100   314100         1954.178       297.41778      7677.9896      2967.2692      10645.259      61000.741      87120        
    314200   314200         1954.8342      301.7555       7722.0808      3010.5456      10732.626      61073.935      87120        
    314300   314300         1955.4953      316.38594      7625.984       3156.5101      10782.494      60838.203      87120        
    314400   314400         1956.1569      300.70844      7697.1288      3000.0993      10697.228      61010.993      87120        
    314500   314500         1956.8055      297.65213      7715.6946      2969.6072      10685.302      61043.79       87120        
    314600   314600         1957.469       302.7999       7682.1373      3020.9653      10703.103      61030.365      87120        
    314700   314700         1958.1547      293.47159      7731.2773      2927.8989      10659.176      61157.163      87120        
    314800   314800         1958.8183      299.56939      7673.0151      2988.7352      10661.75       60957.6        87120        
    314900   314900         1959.4876      301.21609      7716.911       3005.164       10722.075      61109.602      87120        
    315000   315000         1960.1565      305.14342      7696.597       3044.3461      10740.943      60938.635      87120        
    315100   315100         1960.8036      298.64976      7681.3798      2979.5603      10660.94       60981.857      87120        
    315200   315200         1961.4493      292.70376      7728.3317      2920.2385      10648.57       61134.688      87120        
    315300   315300         1962.0961      303.9166       7661.8496      3032.1064      10693.956      60941.871      87120        
    315400   315400         1962.7437      298.61331      7708.9062      2979.1967      10688.103      61088.236      87120        
    315500   315500         1963.3887      301.42296      7698.1819      3007.2279      10705.41       60972.293      87120        
    315600   315600         1964.0401      302.91111      7749.093       3022.0749      10771.168      61219.329      87120        
    315700   315700         1964.6946      308.15553      7686.4903      3074.3973      10760.888      61041.845      87120        
    315800   315800         1965.3448      294.6164       7722.1167      2939.3204      10661.437      61052.161      87120        
    315900   315900         1965.9996      300.86137      7682.2479      3001.6251      10683.873      61060.263      87120        
    316000   316000         1966.6541      301.6449       7705.4043      3009.4422      10714.847      61067.603      87120        
    316100   316100         1967.3035      306.95659      7680.4241      3062.4356      10742.86       61005.633      87120        
    316200   316200         1967.9638      306.58003      7667.3166      3058.6788      10725.995      60999.174      87120        
    316300   316300         1968.6243      292.29963      7714.2555      2916.2065      10630.462      61049.871      87120        
    316400   316400         1969.2896      294.91018      7703.7948      2942.2514      10646.046      61086.831      87120        
    316500   316500         1969.9564      303.70119      7680.5474      3029.9573      10710.505      61005.449      87120        
    316600   316600         1970.623       304.60657      7713.3894      3038.9901      10752.38       61090.157      87120        
    316700   316700         1971.2894      299.45705      7696.9869      2987.6145      10684.601      61024.946      87120        
    316800   316800         1971.9503      293.0551       7669.3107      2923.7437      10593.054      60847.528      87120        
    316900   316900         1972.5953      299.87566      7643.8032      2991.7908      10635.594      60814.257      87120        
    317000   317000         1973.2548      300.89456      7713.0278      3001.9562      10714.984      61118.91       87120        
    317100   317100         1973.9143      302.43321      7715.5278      3017.3069      10732.835      61088.532      87120        
    317200   317200         1974.5627      297.57674      7688.1861      2968.8551      10657.041      60983.389      87120        
    317300   317300         1975.2133      288.69347      7669.3314      2880.2287      10549.56       60869.352      87120        
    317400   317400         1975.8553      299.72929      7642.0808      2990.3305      10632.411      60757.055      87120        
    317500   317500         1976.5183      305.05886      7664.0253      3043.5025      10707.528      60936.944      87120        
    317600   317600         1977.1733      301.62277      7713.001       3009.2214      10722.222      61103.186      87120        
    317700   317700         1977.8289      298.37583      7686.1523      2976.8274      10662.98       60978.903      87120        
    317800   317800         1978.4705      295.63152      7632.8394      2949.448       10582.287      60794.385      87120        
    317900   317900         1979.1125      300.84703      7640.62        3001.482       10642.102      60765.516      87120        
    318000   318000         1979.7587      309.88037      7676.1373      3091.6055      10767.743      61010.185      87120        
    318100   318100         1980.4029      304.46939      7671.6737      3037.6215      10709.295      60970.297      87120        
    318200   318200         1981.0511      299.12189      7669.8032      2984.2706      10654.074      60889.647      87120        
    318300   318300         1981.6946      297.0061       7679.3696      2963.162       10642.532      60963.758      87120        
    318400   318400         1982.3321      298.46979      7711.6616      2977.7648      10689.426      61047.259      87120        
    318500   318500         1982.9999      308.71259      7696.0963      3079.9549      10776.051      61064.96       87120        
    318600   318600         1983.6511      303.05519      7693.2531      3023.5123      10716.765      61079.918      87120        
    318700   318700         1984.3082      300.96062      7673.2406      3002.6153      10675.856      60872.553      87120        
    318800   318800         1984.9845      297.62279      7694.7541      2969.3145      10664.069      61058.518      87120        
    318900   318900         1985.6561      304.57589      7681.7635      3038.6839      10720.447      60990.676      87120        
    319000   319000         1986.3213      304.25442      7701.2916      3035.4767      10736.768      60963.381      87120        
    319100   319100         1986.9786      303.14293      7646.3173      3024.3877      10670.705      60926.319      87120        
    319200   319200         1987.6391      295.49249      7701.315       2948.061       10649.376      61006.321      87120        
    319300   319300         1988.2917      296.52791      7710.9184      2958.3911      10669.31       61063.96       87120        
    319400   319400         1988.9445      306.27952      7657.6663      3055.6807      10713.347      60924.56       87120        
    319500   319500         1989.5938      297.37136      7727.2556      2966.806       10694.062      61037.776      87120        
    319600   319600         1990.2467      295.57338      7679.9535      2948.868       10628.821      61012.576      87120        
    319700   319700         1990.898       302.92692      7649.1946      3022.2326      10671.427      60883.218      87120        
    319800   319800         1991.5515      306.47747      7711.1597      3057.6556      10768.815      60991.727      87120        
    319900   319900         1992.2077      305.9473       7667.9865      3052.3662      10720.353      60988.358      87120        
    320000   320000         1992.8674      300.59237      7650.8161      2998.9413      10649.757      60844.239      87120        
    320100   320100         1993.5212      300.08896      7660.1994      2993.9189      10654.118      60847.207      87120        
    320200   320200         1994.1801      299.59461      7690.073       2988.9869      10679.06       61044.696      87120        
    320300   320300         1994.8337      303.3767       7694.4886      3026.7199      10721.209      60990.674      87120        
    320400   320400         1995.5048      309.77353      7686.2878      3090.5397      10776.827      61019.254      87120        
    320500   320500         1996.1689      301.13491      7677.2378      3004.3541      10681.592      60919.648      87120        
    320600   320600         1996.8192      298.27564      7654.0897      2975.8278      10629.917      60768.691      87120        
    320700   320700         1997.4851      298.59258      7698.4919      2978.9899      10677.482      61044.671      87120        
    320800   320800         1998.1565      304.83912      7690.728       3041.3102      10732.038      61018.41       87120        
    320900   320900         1998.8206      298.09559      7735.6099      2974.0315      10709.641      61118.193      87120        
    321000   321000         1999.4696      291.46815      7701.4146      2907.911       10609.326      61072.992      87120        
    321100   321100         2000.1222      296.51538      7673.9497      2958.2661      10632.216      60922.978      87120        
    321200   321200         2000.7698      303.00217      7660.4451      3022.9833      10683.428      60871.794      87120        
    321300   321300         2001.4228      300.69724      7679.3956      2999.9875      10679.383      61003.671      87120        
    321400   321400         2002.0612      300.83872      7664.9636      3001.3991      10666.363      60875.622      87120        
    321500   321500         2002.7186      301.42336      7665.159       3007.2319      10672.391      60915.124      87120        
    321600   321600         2003.3799      306.27032      7678.9593      3055.5889      10734.548      60985.916      87120        
    321700   321700         2004.0409      309.74268      7680.439       3090.2319      10770.671      60906.598      87120        
    321800   321800         2004.7066      298.17802      7690.9754      2974.8539      10665.829      61080.533      87120        
    321900   321900         2005.3572      294.27313      7721.4092      2935.8957      10657.305      61132.794      87120        
    322000   322000         2006.0196      306.61         7658.2283      3058.9779      10717.206      60918.995      87120        
    322100   322100         2006.6646      304.83675      7692.6771      3041.2865      10733.964      61069.468      87120        
    322200   322200         2007.337       295.58811      7742.0497      2949.0149      10691.065      61102.058      87120        
    322300   322300         2008.001       297.30077      7621.9525      2966.1018      10588.054      60803.857      87120        
    322400   322400         2008.6717      287.94998      7733.0073      2872.8111      10605.818      61174.38       87120        
    322500   322500         2009.3378      298.39506      7733.145       2977.0192      10710.164      61080.637      87120        
    322600   322600         2010.0037      301.37081      7714.189       3006.7076      10720.897      61128.629      87120        
    322700   322700         2010.6635      298.9711       7714.9821      2982.7662      10697.748      61052.176      87120        
    322800   322800         2011.3191      306.22004      7669.0066      3055.0873      10724.094      60953.857      87120        
    322900   322900         2011.973       294.67327      7752.9779      2939.8878      10692.866      61316.053      87120        
    323000   323000         2012.6214      296.5426       7708.3704      2958.5376      10666.908      61034.596      87120        
    323100   323100         2013.2489      296.47399      7747.1824      2957.8532      10705.036      61291.847      87120        
    323200   323200         2013.8904      303.9406       7737.5756      3032.3459      10769.921      61169.034      87120        
    323300   323300         2014.5243      307.09228      7709.3254      3063.7895      10773.115      61110.729      87120        
    323400   323400         2015.1725      299.69917      7708.0432      2990.0301      10698.073      61175.491      87120        
    323500   323500         2015.8382      302.53738      7682.4488      3018.3462      10700.795      61012.59       87120        
    323600   323600         2016.4903      292.16419      7762.9886      2914.8553      10677.844      61267.125      87120        
    323700   323700         2017.1459      302.29797      7689.0002      3015.9577      10704.958      61025.25       87120        
    323800   323800         2017.804       305.92935      7729.7572      3052.1871      10781.944      61121.93       87120        
    323900   323900         2018.4613      310.52739      7647.6156      3098.0607      10745.676      60927.076      87120        
    324000   324000         2019.1209      302.90629      7693.0214      3022.0268      10715.048      61022.048      87120        
    324100   324100         2019.7705      298.71498      7710.8557      2980.211       10691.067      61055.791      87120        
    324200   324200         2020.4239      300.85708      7680.6663      3001.5823      10682.249      61035.134      87120        
    324300   324300         2021.0675      298.97865      7722.9492      2982.8416      10705.791      61054.494      87120        
    324400   324400         2021.7236      306.3342       7709.5873      3056.2263      10765.814      61085.567      87120        
    324500   324500         2022.3798      301.9973       7705.2238      3012.958       10718.182      61150.627      87120        
    324600   324600         2023.0404      297.18775      7711.8462      2964.9742      10676.82       61074.993      87120        
    324700   324700         2023.7086      299.03276      7703.2383      2983.3814      10686.62       61041.434      87120        
    324800   324800         2024.373       299.44478      7691.362       2987.4921      10678.854      60986.582      87120        
    324900   324900         2025.0576      301.70226      7641.2656      3010.0145      10651.28       60754.848      87120        
    325000   325000         2025.7265      299.05669      7626.1471      2983.6201      10609.767      60763.553      87120        
    325100   325100         2026.3792      296.69298      7634.8231      2960.038       10594.861      60773.34       87120        
    325200   325200         2027.0298      300.41891      7689.5039      2997.2108      10686.715      61011.897      87120        
    325300   325300         2027.6885      303.80051      7709.2197      3030.9482      10740.168      61151.844      87120        
    325400   325400         2028.3464      299.53196      7705.6981      2988.3618      10694.06       61046.481      87120        
    325500   325500         2028.9976      298.641        7679.4458      2979.4729      10658.919      60882.839      87120        
    325600   325600         2029.6532      301.59509      7678.816       3008.9452      10687.761      60972.422      87120        
    325700   325700         2030.3115      306.86613      7715.9002      3061.5332      10777.433      61127.063      87120        
    325800   325800         2030.972       303.73819      7751.492       3030.3265      10781.819      61232.236      87120        
    325900   325900         2031.6376      296.75245      7707.1442      2960.6313      10667.776      61083.181      87120        
    326000   326000         2032.3022      293.74103      7687.8661      2930.5871      10618.453      60920.955      87120        
    326100   326100         2032.9578      297.99103      7703.9746      2972.9883      10676.963      61008.333      87120        
    326200   326200         2033.607       303.75341      7702.2737      3030.4782      10732.752      61102.381      87120        
    326300   326300         2034.2741      302.50957      7698.5394      3018.0688      10716.608      61076.442      87120        
    326400   326400         2034.9406      290.30608      7686.8025      2896.3174      10583.12       61004.812      87120        
    326500   326500         2035.5998      292.91786      7664.7059      2922.3745      10587.08       60873.163      87120        
    326600   326600         2036.2501      296.26381      7671.7407      2955.7563      10627.497      60855.452      87120        
    326700   326700         2036.9117      303.541        7676.5306      3028.3592      10704.89       60946.047      87120        
    326800   326800         2037.5687      301.74565      7726.6237      3010.4473      10737.071      61133.602      87120        
    326900   326900         2038.223       294.18333      7732.7473      2934.9998      10667.747      61136.946      87120        
    327000   327000         2038.8676      289.28072      7706.2553      2886.0876      10592.343      61050.609      87120        
    327100   327100         2039.5222      297.28628      7673.7758      2965.9572      10639.733      60859.381      87120        
    327200   327200         2040.1713      303.45652      7645.0717      3027.5163      10672.588      60848.32       87120        
    327300   327300         2040.8391      301.95896      7659.3679      3012.5755      10671.943      60865.77       87120        
    327400   327400         2041.511       294.28505      7685.6001      2936.0146      10621.615      60912.719      87120        
    327500   327500         2042.1758      295.34519      7679.1287      2946.5914      10625.72       60972.306      87120        
    327600   327600         2042.838       306.97298      7673.1035      3062.5992      10735.703      60957.986      87120        
    327700   327700         2043.4973      304.76874      7665.149       3040.608       10705.757      60947.527      87120        
    327800   327800         2044.1495      298.43424      7675.8044      2977.4101      10653.215      61034.007      87120        
    327900   327900         2044.7892      297.3741       7715.8323      2966.8334      10682.666      61114.547      87120        
    328000   328000         2045.4488      302.81426      7715.0636      3021.1086      10736.172      61164.843      87120        
    328100   328100         2046.0996      307.46959      7702.9345      3067.5538      10770.488      61115.276      87120        
    328200   328200         2046.7578      307.60213      7737.8931      3068.8761      10806.769      61170.618      87120        
    328300   328300         2047.4146      305.83433      7682.8233      3051.2391      10734.062      61036.993      87120        
    328400   328400         2048.0724      296.13379      7717.6044      2954.4591      10672.063      61103.917      87120        
    328500   328500         2048.7273      296.09175      7733.8193      2954.0397      10687.859      61160.14       87120        
    328600   328600         2049.3669      304.24798      7708.7107      3035.4125      10744.123      61105.093      87120        
    328700   328700         2050.0243      299.63657      7735.9818      2989.4055      10725.387      61157.649      87120        
    328800   328800         2050.682       295.49795      7652.1145      2948.1155      10600.23       60900.268      87120        
    328900   328900         2051.3403      294.83786      7638.7208      2941.5299      10580.251      60737.181      87120        
    329000   329000         2051.9983      296.35634      7698.056       2956.6794      10654.735      61013.82       87120        
    329100   329100         2052.6454      300.55253      7709.589       2998.5438      10708.133      61139.813      87120        
    329200   329200         2053.2969      298.42973      7713.7567      2977.3651      10691.122      61076.865      87120        
    329300   329300         2053.9431      296.28553      7657.0168      2955.9729      10612.99       60869.298      87120        
    329400   329400         2054.6001      289.39917      7665.1866      2887.2693      10552.456      60879.839      87120        
    329500   329500         2055.2427      303.62022      7659.9481      3029.1495      10689.098      60871.384      87120        
    329600   329600         2055.8846      305.20421      7682.9251      3044.9526      10727.878      61065.641      87120        
    329700   329700         2056.5256      301.26673      7680.3219      3005.6693      10685.991      60964.662      87120        
    329800   329800         2057.168       299.48241      7628.0425      2987.8675      10615.91       60791.058      87120        
    329900   329900         2057.8227      292.75852      7660.6431      2920.7848      10581.428      60898.84       87120        
    330000   330000         2058.4725      302.24105      7685.7998      3015.3899      10701.19       60979.486      87120        
    330100   330100         2059.12        307.1176       7691.9433      3064.042       10755.985      61083.864      87120        
    330200   330200         2059.769       296.54839      7730.3536      2958.5954      10688.949      61188.25       87120        
    330300   330300         2060.4228      297.68332      7663.026       2969.9184      10632.944      60865.943      87120        
    330400   330400         2061.0743      295.60272      7661.8241      2949.1607      10610.985      60847.421      87120        
    330500   330500         2061.727       302.53069      7642.1282      3018.2794      10660.408      60845.221      87120        
    330600   330600         2062.3905      302.15422      7713.7122      3014.5235      10728.236      61086.989      87120        
    330700   330700         2063.0524      303.44654      7709.1965      3027.4167      10736.613      61114.409      87120        
    330800   330800         2063.708       298.14071      7682.798       2974.4817      10657.28       60976.424      87120        
    330900   330900         2064.353       295.34682      7621.0751      2946.6077      10567.683      60686.094      87120        
    331000   331000         2065.0091      290.81886      7675.6318      2901.4332      10577.065      60928.893      87120        
    331100   331100         2065.6553      306.41003      7665.6748      3056.9828      10722.658      60947.736      87120        
    331200   331200         2066.2868      300.85151      7728.2695      3001.5267      10729.796      61167.478      87120        
    331300   331300         2066.9311      298.42363      7710.347       2977.3043      10687.651      61140.425      87120        
    331400   331400         2067.5773      293.00717      7691.5724      2923.2655      10614.838      60970.873      87120        
    331500   331500         2068.217       301.53354      7666.4581      3008.3311      10674.789      60935.544      87120        
    331600   331600         2068.8681      306.53675      7699.1535      3058.247       10757.4        61127.156      87120        
    331700   331700         2069.508       303.52701      7701.5381      3028.2195      10729.758      61045.127      87120        
    331800   331800         2070.173       299.86769      7671.5794      2991.7113      10663.291      60972.309      87120        
    331900   331900         2070.808       297.33067      7658.827       2966.4001      10625.227      60909.135      87120        
    332000   332000         2071.4561      301.60065      7621.4221      3009.0006      10630.423      60742.692      87120        
    332100   332100         2072.0898      303.21836      7693.4809      3025.1402      10718.621      61069.009      87120        
    332200   332200         2072.7376      305.29648      7726.9235      3045.8731      10772.797      61097.566      87120        
    332300   332300         2073.3848      302.33514      7691.1578      3016.3286      10707.486      61007.646      87120        
    332400   332400         2074.0321      299.80443      7663.3801      2991.0802      10654.46       60975.275      87120        
    332500   332500         2074.679       300.45417      7653.5502      2997.5625      10651.113      60916.091      87120        
    332600   332600         2075.3253      298.48724      7706.5293      2977.9389      10684.468      61154.302      87120        
    332700   332700         2075.9732      304.68629      7711.5813      3039.7854      10751.367      61136.708      87120        
    332800   332800         2076.6203      302.04304      7695.3768      3013.4143      10708.791      61005.189      87120        
    332900   332900         2077.2695      293.87117      7661.9976      2931.8854      10593.883      60913.079      87120        
    333000   333000         2077.934       295.66151      7682.2965      2949.7472      10632.044      60957.675      87120        
    333100   333100         2078.5802      303.62443      7704.502       3029.1914      10733.693      61150.072      87120        
    333200   333200         2079.2403      306.16038      7678.9363      3054.492       10733.428      61053.017      87120        
    333300   333300         2079.8893      298.91836      7688.3061      2982.2401      10670.546      60990.952      87120        
    333400   333400         2080.5342      300.9615       7670.5039      3002.624       10673.128      60904.326      87120        
    333500   333500         2081.1879      305.62778      7674.8055      3049.1785      10723.984      60938.111      87120        
    333600   333600         2081.8374      299.66672      7717.2739      2989.7063      10706.98       61034.817      87120        
    333700   333700         2082.4857      296.79187      7679.3242      2961.0246      10640.349      60969.574      87120        
    333800   333800         2083.1299      294.01355      7693.7488      2933.3059      10627.055      61049.079      87120        
    333900   333900         2083.7637      306.80422      7625.8037      3060.9155      10686.719      60823.558      87120        
    334000   334000         2084.4104      304.42396      7638.3275      3037.1682      10675.496      60835.21       87120        
    334100   334100         2085.0616      296.21785      7663.831       2955.2977      10619.129      60829.466      87120        
    334200   334200         2085.7055      285.52706      7694.2922      2848.6381      10542.93       60986.654      87120        
    334300   334300         2086.3538      295.05885      7687.0748      2943.7346      10630.809      61069.175      87120        
    334400   334400         2087.0208      294.44451      7735.944       2937.6055      10673.55       61132.77       87120        
    334500   334500         2087.6778      297.29405      7744.9108      2966.0348      10710.946      61180.084      87120        
    334600   334600         2088.3449      305.74316      7660.945       3050.3296      10711.275      60858.441      87120        
    334700   334700         2089.0069      296.15965      7673.5742      2954.717       10628.291      60947.95       87120        
    334800   334800         2089.6637      298.12639      7677.0168      2974.3388      10651.356      61040.845      87120        
    334900   334900         2090.3372      301.97027      7695.0152      3012.6883      10707.703      61053.756      87120        
    335000   335000         2091.0024      307.81575      7636.3721      3071.0073      10707.379      60845.298      87120        
    335100   335100         2091.6641      300.84138      7641.2681      3001.4256      10642.694      60830.283      87120        
    335200   335200         2092.3124      298.13983      7668.2591      2974.4729      10642.732      60838.463      87120        
    335300   335300         2092.967       299.25363      7717.2907      2985.585       10702.876      61083.182      87120        
    335400   335400         2093.6214      302.52184      7731.0155      3018.1912      10749.207      61200.469      87120        
    335500   335500         2094.2711      296.57277      7711.4892      2958.8387      10670.328      61080.111      87120        
    335600   335600         2094.9062      291.0703       7656.8415      2903.9418      10560.783      60817.33       87120        
    335700   335700         2095.5609      294.90248      7680.4016      2942.1745      10622.576      60962.406      87120        
    335800   335800         2096.2076      304.8777       7662.5603      3041.695       10704.255      60914.68       87120        
    335900   335900         2096.8632      299.78409      7712.5045      2990.8773      10703.382      61117.568      87120        
    336000   336000         2097.5211      296.2939       7685.9395      2956.0564      10641.996      60978.832      87120        
    336100   336100         2098.165       297.1935       7638.4075      2965.0316      10603.439      60717.923      87120        
    336200   336200         2098.8151      305.03145      7654.1044      3043.229       10697.333      60816.684      87120        
    336300   336300         2099.4603      302.90729      7693.4639      3022.0368      10715.501      60962.207      87120        
    336400   336400         2100.1114      301.0335       7703.9839      3003.3423      10707.326      61027.135      87120        
    336500   336500         2100.7635      297.92938      7686.3236      2972.3733      10658.697      61032.528      87120        
    336600   336600         2101.409       297.97976      7664.9965      2972.8759      10637.872      60938.592      87120        
    336700   336700         2102.0563      298.34034      7662.2835      2976.4733      10638.757      60906.327      87120        
    336800   336800         2102.7097      303.06349      7641.1207      3023.5951      10664.716      60829.475      87120        
    336900   336900         2103.3615      297.45411      7700.2628      2967.6316      10667.894      61038.883      87120        
    337000   337000         2104.0202      300.76742      7697.7238      3000.6878      10698.412      61048.267      87120        
    337100   337100         2104.6769      309.69851      7666.467       3089.7912      10756.258      61001.929      87120        
    337200   337200         2105.3168      303.0959       7676.0785      3023.9184      10699.997      60972.402      87120        
    337300   337300         2105.9651      296.39663      7646.1193      2957.0814      10603.201      60821.132      87120        
    337400   337400         2106.604       297.23567      7653.0517      2965.4523      10618.504      60841.278      87120        
    337500   337500         2107.2548      301.78809      7698.7305      3010.8708      10709.601      61085.355      87120        
    337600   337600         2107.8958      307.2646       7655.2319      3065.5086      10720.741      60928.695      87120        
    337700   337700         2108.553       296.48364      7652.7406      2957.9494      10610.69       60877.543      87120        
    337800   337800         2109.212       296.34644      7641.8912      2956.5806      10598.472      60794.172      87120        
    337900   337900         2109.8595      302.66104      7642.5086      3019.58        10662.089      60812.685      87120        
    338000   338000         2110.5181      303.06098      7694.6076      3023.57        10718.178      60999.13       87120        
    338100   338100         2111.162       299.67237      7713.5295      2989.7627      10703.292      61118.324      87120        
    338200   338200         2111.8151      294.3269       7678.2244      2936.4322      10614.657      60992.107      87120        
    338300   338300         2112.4488      298.75954      7661.8514      2980.6556      10642.507      60919.295      87120        
    338400   338400         2113.0918      303.52848      7696.0623      3028.2342      10724.296      61006.763      87120        
    338500   338500         2113.7237      300.76547      7706.2895      3000.6683      10706.958      61074.289      87120        
    338600   338600         2114.3733      300.62811      7663.2347      2999.2979      10662.533      60940.703      87120        
    338700   338700         2115.0192      298.8938       7664.6216      2981.9951      10646.617      60940.812      87120        
    338800   338800         2115.6538      297.95655      7674.3076      2972.6443      10646.952      61016.159      87120        
    338900   338900         2116.3085      305.50515      7652.6568      3047.955       10700.612      60848.676      87120        
    339000   339000         2116.9682      303.83142      7708.3192      3031.2565      10739.576      61107.848      87120        
    339100   339100         2117.627       301.69536      7716.9401      3009.9456      10726.886      61096.521      87120        
    339200   339200         2118.2779      292.71736      7708.2617      2920.3742      10628.636      61009.534      87120        
    339300   339300         2118.9322      301.00839      7643.1532      3003.0918      10646.245      60859.129      87120        
    339400   339400         2119.583       300.72708      7679.1388      3000.2852      10679.424      60965.521      87120        
    339500   339500         2120.2247      302.61801      7667.0347      3019.1507      10686.185      60932.414      87120        
    339600   339600         2120.8776      294.74796      7711.2504      2940.633       10651.883      61089.761      87120        
    339700   339700         2121.5321      287.24281      7697.4474      2865.7558      10563.203      61004.037      87120        
    339800   339800         2122.1706      298.82148      7670.8682      2981.2736      10652.142      61012.843      87120        
    339900   339900         2122.8223      299.95419      7714.1697      2992.5743      10706.744      61090.934      87120        
    340000   340000         2123.4872      300.36653      7753.6755      2996.6881      10750.364      61207.891      87120        
    340100   340100         2124.133       307.70623      7697.8158      3069.9147      10767.731      61106.711      87120        
    340200   340200         2124.7839      300.42651      7676.6026      2997.2865      10673.889      61012.497      87120        
    340300   340300         2125.4359      298.44665      7664.834       2977.534       10642.368      60968.195      87120        
    340400   340400         2126.0907      291.59963      7733.8778      2909.2228      10643.101      61146.396      87120        
    340500   340500         2126.7305      302.82117      7690.962       3021.1775      10712.139      61025.145      87120        
    340600   340600         2127.3816      304.85712      7676.6307      3041.4898      10718.121      60983.339      87120        
    340700   340700         2128.0318      297.37595      7719.4425      2966.8519      10686.294      61122.452      87120        
    340800   340800         2128.6841      302.88262      7660.6413      3021.7906      10682.432      60905.67       87120        
    340900   340900         2129.3329      294.18121      7677.7265      2934.9787      10612.705      60950.873      87120        
    341000   341000         2129.9917      289.91932      7661.3986      2892.4587      10553.857      60870.105      87120        
    341100   341100         2130.6449      299.44593      7670.4198      2987.5036      10657.923      60940.033      87120        
    341200   341200         2131.2884      296.52975      7717.6382      2958.4095      10676.048      61084.446      87120        
    341300   341300         2131.9437      301.30946      7677.1396      3006.0956      10683.235      61012.11       87120        
    341400   341400         2132.592       297.97112      7697.3146      2972.7897      10670.104      61096.505      87120        
    341500   341500         2133.2408      303.61301      7658.1716      3029.0776      10687.249      60953.968      87120        
    341600   341600         2133.8888      299.17757      7673.0015      2984.8262      10657.828      60997.417      87120        
    341700   341700         2134.5401      300.3329       7653.5152      2996.3526      10649.868      60904.973      87120        
    341800   341800         2135.1987      299.94983      7673.822       2992.5308      10666.353      60920.896      87120        
    341900   341900         2135.8468      302.24583      7682.9905      3015.4375      10698.428      60990.383      87120        
    342000   342000         2136.5056      299.0306       7706.0554      2983.3599      10689.415      61093.975      87120        
    342100   342100         2137.1442      296.57903      7681.2456      2958.9011      10640.147      61025.154      87120        
    342200   342200         2137.7883      301.64104      7645.735       3009.4037      10655.139      60883.781      87120        
    342300   342300         2138.419       307.62717      7656.2828      3069.1259      10725.409      60940.789      87120        
    342400   342400         2139.0655      299.39189      7703.2783      2986.9644      10690.243      60995.95       87120        
    342500   342500         2139.7164      304.26133      7657.3694      3035.5457      10692.915      60992.009      87120        
    342600   342600         2140.3628      302.4536       7688.7536      3017.5104      10706.264      61127.575      87120        
    342700   342700         2141.0246      301.52119      7667.1304      3008.2079      10675.338      60948.902      87120        
    342800   342800         2141.6702      300.34462      7619.0788      2996.4696      10615.548      60777.295      87120        
    342900   342900         2142.3176      300.47509      7679.9908      2997.7712      10677.762      60964.091      87120        
    343000   343000         2142.9836      306.44508      7730.6525      3057.3325      10787.985      61133.898      87120        
    343100   343100         2143.6535      307.23975      7703.6007      3065.2607      10768.861      61150.204      87120        
    343200   343200         2144.3164      298.11882      7717.4187      2974.2633      10691.682      61137.002      87120        
    343300   343300         2144.9812      296.63461      7715.8455      2959.4557      10675.301      61096.666      87120        
    343400   343400         2145.639       303.91146      7655.2477      3032.0551      10687.303      60917.136      87120        
    343500   343500         2146.2921      297.90736      7709.8504      2972.1536      10682.004      61010.05       87120        
    343600   343600         2146.9423      295.55276      7764.2578      2948.6623      10712.92       61358.356      87120        
    343700   343700         2147.5797      298.47962      7759.9413      2977.8629      10737.804      61366.592      87120        
    343800   343800         2148.2226      300.3445       7713.9085      2996.4684      10710.377      61067.57       87120        
    343900   343900         2148.8653      299.17916      7686.7084      2984.842       10671.55       61014.508      87120        
    344000   344000         2149.5006      307.10749      7631.2378      3063.9411      10695.179      60757.994      87120        
    344100   344100         2150.1394      301.35426      7709.7481      3006.5425      10716.291      61038.883      87120        
    344200   344200         2150.7901      297.20892      7710.7892      2965.1854      10675.975      61116.435      87120        
    344300   344300         2151.4417      292.9802       7715.8086      2922.9964      10638.805      61050.109      87120        
    344400   344400         2152.0854      303.9063       7666.8335      3032.0037      10698.837      60955.116      87120        
    344500   344500         2152.7412      304.23599      7677.9498      3035.2929      10713.243      60960.881      87120        
    344600   344600         2153.3885      296.88072      7707.5562      2961.911       10669.467      61046.026      87120        
    344700   344700         2154.0231      301.10472      7694.1938      3004.0529      10698.247      61081.104      87120        
    344800   344800         2154.6788      304.93333      7690.2085      3042.25        10732.459      61035.37       87120        
    344900   344900         2155.3268      298.66742      7716.8043      2979.7366      10696.541      61146.642      87120        
    345000   345000         2155.9871      298.49789      7653.4159      2978.0452      10631.461      60858.706      87120        
    345100   345100         2156.6337      293.93725      7667.5515      2932.5447      10600.096      60852.838      87120        
    345200   345200         2157.2811      304.00707      7653.1513      3033.009       10686.16       60880.412      87120        
    345300   345300         2157.9293      303.76064      7698.2381      3030.5504      10728.789      61047.491      87120        
    345400   345400         2158.5976      306.27714      7638.18        3055.657       10693.837      60762.634      87120        
    345500   345500         2159.2568      296.58254      7674.5843      2958.9362      10633.52       60923.374      87120        
    345600   345600         2159.9082      300.61689      7647.5081      2999.186       10646.694      60829.349      87120        
    345700   345700         2160.548       302.76062      7649.8674      3020.5735      10670.441      60862.347      87120        
    345800   345800         2161.1997      298.53172      7685.225       2978.3827      10663.608      60988.556      87120        
    345900   345900         2161.8488      296.76337      7694.7526      2960.7403      10655.493      60965.476      87120        
    346000   346000         2162.5026      305.41384      7664.5165      3047.044       10711.561      60889.665      87120        
    346100   346100         2163.1676      302.10705      7688.9049      3014.0529      10702.958      61048.647      87120        
    346200   346200         2163.8141      295.0313       7704.4249      2943.4598      10647.885      61056.402      87120        
    346300   346300         2164.4615      295.02173      7700.821       2943.3643      10644.185      61053.545      87120        
    346400   346400         2165.1273      304.93654      7706.9615      3042.2821      10749.244      61048.504      87120        
    346500   346500         2165.7792      303.19582      7722.4507      3024.9153      10747.366      61097.251      87120        
    346600   346600         2166.4378      299.80561      7695.1991      2991.092       10686.291      61063.04       87120        
    346700   346700         2167.1019      301.44182      7642.9709      3007.4161      10650.387      60860.479      87120        
    346800   346800         2167.7637      291.98509      7730.5858      2913.0684      10643.654      61165.638      87120        
    346900   346900         2168.4192      299.09117      7741.6047      2983.9642      10725.569      61179.258      87120        
    347000   347000         2169.0721      307.11216      7707.8756      3063.9877      10771.863      61030.793      87120        
    347100   347100         2169.7337      305.21808      7655.0091      3045.091       10700.1        60882.855      87120        
    347200   347200         2170.3872      294.03092      7712.3348      2933.4793      10645.814      61068.393      87120        
    347300   347300         2171.0517      299.2561       7675.8385      2985.6097      10661.448      60951.636      87120        
    347400   347400         2171.7227      299.14368      7688.5793      2984.4881      10673.067      61048.388      87120        
    347500   347500         2172.39        304.86577      7681.2896      3041.576       10722.866      61012.357      87120        
    347600   347600         2173.0609      303.61567      7675.4543      3029.1041      10704.558      60955.947      87120        
    347700   347700         2173.7184      296.50482      7687.9554      2958.1607      10646.116      60932.367      87120        
    347800   347800         2174.3708      296.00586      7681.5235      2953.1828      10634.706      60938.289      87120        
    347900   347900         2175.025       298.81249      7680.673       2981.1839      10661.857      60985.409      87120        
    348000   348000         2175.6799      301.96313      7662.6558      3012.6171      10675.273      60913.576      87120        
    348100   348100         2176.3212      302.43174      7652.255       3017.2923      10669.547      60817.132      87120        
    348200   348200         2176.9734      302.4151       7634.5221      3017.1262      10651.648      60793.404      87120        
    348300   348300         2177.6341      288.81597      7719.0819      2881.4509      10600.533      61067.907      87120        
    348400   348400         2178.299       298.64123      7690.2774      2979.4752      10669.753      61043.358      87120        
    348500   348500         2178.9645      300.63682      7681.4105      2999.3848      10680.795      60993.675      87120        
    348600   348600         2179.6269      297.61663      7675.321       2969.2531      10644.574      60924.96       87120        
    348700   348700         2180.2834      299.64306      7642.434       2989.4703      10631.904      60815.268      87120        
    348800   348800         2180.9403      291.84524      7646.9113      2911.6732      10558.584      60805.242      87120        
    348900   348900         2181.597       291.35661      7666.5626      2906.7983      10573.361      60858.49       87120        
    349000   349000         2182.2676      302.601        7667.7053      3018.9809      10686.686      60915.239      87120        
    349100   349100         2182.9162      303.0338       7666.5508      3023.2989      10689.85       60892.494      87120        
    349200   349200         2183.5675      295.87977      7713.125       2951.9248      10665.05       61052.723      87120        
    349300   349300         2184.2174      305.29974      7641.6968      3045.9057      10687.602      60867.383      87120        
    349400   349400         2184.8694      298.53745      7691.0699      2978.4399      10669.51       60995.291      87120        
    349500   349500         2185.5188      299.27052      7691.1085      2985.7535      10676.862      61019.127      87120        
    349600   349600         2186.1673      305.11102      7678.1317      3044.0228      10722.154      61000.617      87120        
    349700   349700         2186.8134      298.04371      7719.3407      2973.5139      10692.855      61147.663      87120        
    349800   349800         2187.4733      295.35984      7685.1201      2946.7375      10631.858      61016.255      87120        
    349900   349900         2188.1396      296.89874      7697.6775      2962.0908      10659.768      61021.862      87120        
    350000   350000         2188.8071      304.61317      7688.1864      3039.0559      10727.242      61000.23       87120        
    350100   350100         2189.4586      302.64567      7671.9621      3019.4267      10691.389      60932.374      87120        
    350200   350200         2190.113       299.08959      7661.9149      2983.9484      10645.863      60879.225      87120        
    350300   350300         2190.7672      295.73341      7724.6663      2950.4646      10675.131      61167.403      87120        
    350400   350400         2191.4101      306.60301      7670.4704      3058.9081      10729.378      60968.824      87120        
    350500   350500         2192.0563      307.67412      7596.2451      3069.5943      10665.839      60690.427      87120        
    350600   350600         2192.7095      297.0105       7663.8278      2963.2058      10627.034      60876.086      87120        
    350700   350700         2193.3546      301.9106       7655.1679      3012.093       10667.261      60875.519      87120        
    350800   350800         2194.0141      296.38067      7742.8133      2956.9221      10699.735      61210.818      87120        
    350900   350900         2194.6702      303.20328      7711.8611      3024.9897      10736.851      61101.223      87120        
    351000   351000         2195.3209      309.07534      7652.0267      3083.5739      10735.601      60839.345      87120        
    351100   351100         2195.9694      299.60054      7640.7247      2989.046       10629.771      60792.3        87120        
    351200   351200         2196.6219      294.09122      7675.1078      2934.0809      10609.189      60905.841      87120        
    351300   351300         2197.2782      300.76144      7696.1531      3000.6281      10696.781      61099.109      87120        
    351400   351400         2197.9342      298.5678       7784.1205      2978.7427      10762.863      61423.154      87120        
    351500   351500         2198.5963      304.85729      7711.3524      3041.4915      10752.844      61122.863      87120        
    351600   351600         2199.2576      297.45736      7612.0281      2967.664       10579.692      60683.304      87120        
    351700   351700         2199.9205      293.89174      7622.823       2932.0907      10554.914      60684.95       87120        
    351800   351800         2200.5823      298.62244      7668.7748      2979.2878      10648.063      60899.335      87120        
    351900   351900         2201.2366      306.70833      7661.9991      3059.9588      10721.958      60989.768      87120        
    352000   352000         2201.8894      299.14616      7706.5643      2984.5128      10691.077      61088.757      87120        
    352100   352100         2202.534       291.4096       7644.2281      2907.327       10551.555      60786.492      87120        
    352200   352200         2203.1856      293.39065      7601.6204      2927.0914      10528.712      60645.803      87120        
    352300   352300         2203.8388      301.35047      7631.4838      3006.5047      10637.988      60757.562      87120        
    352400   352400         2204.5027      302.73914      7667.7084      3020.3591      10688.068      60930.784      87120        
    352500   352500         2205.1624      296.56181      7704.1225      2958.7294      10662.852      61042.428      87120        
    352600   352600         2205.8193      300.076        7642.574       2993.7896      10636.364      60850.134      87120        
    352700   352700         2206.4841      297.77631      7701.6101      2970.8461      10672.456      60986.036      87120        
    352800   352800         2207.1446      311.18125      7639.1826      3104.5841      10743.767      60779.839      87120        
    352900   352900         2207.7923      303.96183      7669.2601      3032.5577      10701.818      60953.018      87120        
    353000   353000         2208.4608      299.83326      7678.2828      2991.3679      10669.651      60897.957      87120        
    353100   353100         2209.1171      293.0801       7726.2872      2923.9931      10650.28       61169.12       87120        
    353200   353200         2209.7604      302.72879      7702.4112      3020.2559      10722.667      61068.339      87120        
    353300   353300         2210.4076      301.99424      7723.7493      3012.9274      10736.677      61117.813      87120        
    353400   353400         2211.0587      302.72655      7679.7356      3020.2335      10699.969      60984.339      87120        
    353500   353500         2211.7096      296.31292      7726.715       2956.2463      10682.961      61133.534      87120        
    353600   353600         2212.36        298.99989      7718.214       2983.0535      10701.267      61091.414      87120        
    353700   353700         2213.012       306.47582      7666.5906      3057.6391      10724.23       60982.085      87120        
    353800   353800         2213.6658      300.1811       7711.6565      2994.8382      10706.495      61032.603      87120        
    353900   353900         2214.3274      294.44512      7738.8242      2937.6116      10676.436      61137.28       87120        
    354000   354000         2215.0013      301.41677      7677.0082      3007.1661      10684.174      60986.814      87120        
    354100   354100         2215.664       299.4531       7706.9825      2987.5751      10694.558      61072.072      87120        
    354200   354200         2216.327       310.36448      7657.4518      3096.4354      10753.887      60900.273      87120        
    354300   354300         2216.9817      301.03017      7698.121       3003.3092      10701.43       61013.268      87120        
    354400   354400         2217.6399      294.64887      7698.4003      2939.6443      10638.045      60984.647      87120        
    354500   354500         2218.287       294.45411      7719.8813      2937.7013      10657.583      61073.023      87120        
    354600   354600         2218.9445      298.764        7704.4369      2980.7001      10685.137      61019.974      87120        
    354700   354700         2219.6014      301.47345      7664.3714      3007.7316      10672.103      60853.859      87120        
    354800   354800         2220.2533      301.01857      7663.9184      3003.1934      10667.112      60884.346      87120        
    354900   354900         2220.9023      299.45117      7673.3128      2987.5558      10660.869      60934.21       87120        
    355000   355000         2221.5366      295.90139      7682.0436      2952.1405      10634.184      61008.474      87120        
    355100   355100         2222.1716      296.86608      7679.2771      2961.765       10641.042      61019.451      87120        
    355200   355200         2222.8156      309.73821      7598.3565      3090.1873      10688.544      60678.487      87120        
    355300   355300         2223.4476      297.27853      7678.8044      2965.8799      10644.684      60965.885      87120        
    355400   355400         2224.0955      290.37767      7671.0005      2897.0316      10568.032      60867.039      87120        
    355500   355500         2224.7372      293.82371      7693.5143      2931.4119      10624.926      60994.331      87120        
    355600   355600         2225.3837      304.2864       7679.3748      3035.7958      10715.171      61003.338      87120        
    355700   355700         2226.0481      301.5464       7698.6443      3008.4594      10707.104      61076.195      87120        
    355800   355800         2226.6974      300.40393      7673.7934      2997.0613      10670.855      60945.922      87120        
    355900   355900         2227.3621      298.43884      7659.2007      2977.456       10636.657      60910.826      87120        
    356000   356000         2228.0132      296.25046      7696.4606      2955.6231      10652.084      61017.369      87120        
    356100   356100         2228.6662      305.75475      7698.5439      3050.4452      10748.989      61117.304      87120        
    356200   356200         2229.3178      302.95721      7716.7219      3022.5348      10739.257      61110.984      87120        
    356300   356300         2229.9665      295.80375      7720.3315      2951.1663      10671.498      61065.301      87120        
    356400   356400         2230.6144      291.29535      7741.9942      2906.187       10648.181      61184.913      87120        
    356500   356500         2231.2525      310.86889      7654.6809      3101.4678      10756.149      60917.309      87120        
    356600   356600         2231.9033      306.1021       7711.1601      3053.9106      10765.071      61104.142      87120        
    356700   356700         2232.5435      297.72283      7693.5133      2970.3126      10663.826      61071.174      87120        
    356800   356800         2233.1935      292.02033      7691.1069      2913.4201      10604.527      60959.867      87120        
    356900   356900         2233.8425      299.02441      7668.9596      2983.2982      10652.258      60908.441      87120        
    357000   357000         2234.487       302.62673      7679.7842      3019.2376      10699.022      60948.201      87120        
    357100   357100         2235.1413      302.64409      7680.8         3019.4108      10700.211      61027.92       87120        
    357200   357200         2235.7864      291.59966      7703.3946      2909.2231      10612.618      61080.258      87120        
    357300   357300         2236.4418      290.84655      7648.6789      2901.7095      10550.388      60806.5        87120        
    357400   357400         2237.0943      297.47369      7631.0408      2967.827       10598.868      60805.484      87120        
    357500   357500         2237.7421      302.30361      7639.943       3016.0139      10655.957      60786.945      87120        
    357600   357600         2238.398       300.15411      7715.9388      2994.5689      10710.508      61070.033      87120        
    357700   357700         2239.0573      305.16848      7703.162       3044.5961      10747.758      61170.711      87120        
    357800   357800         2239.7053      297.94367      7696.5398      2972.5158      10669.056      61026.458      87120        
    357900   357900         2240.3625      295.66928      7655.0348      2949.8247      10604.86       60891.409      87120        
    358000   358000         2241.0096      297.69155      7646.8822      2970.0005      10616.883      60880.177      87120        
    358100   358100         2241.6557      300.81102      7661.3427      3001.1228      10662.465      60838.294      87120        
    358200   358200         2242.2896      302.97897      7664.2688      3022.7519      10687.021      60940.859      87120        
    358300   358300         2242.9305      295.39273      7747.5674      2947.0657      10694.633      61215.801      87120        
    358400   358400         2243.5754      298.38501      7712.4726      2976.9189      10689.391      61093.104      87120        
    358500   358500         2244.2143      301.56007      7696.2227      3008.5958      10704.818      61113.472      87120        
    358600   358600         2244.8674      305.31929      7674.8713      3046.1007      10720.972      60892.722      87120        
    358700   358700         2245.5167      300.85271      7659.7889      3001.5387      10661.328      60858.573      87120        
    358800   358800         2246.1732      295.94224      7657.0492      2952.548       10609.597      60852.742      87120        
    358900   358900         2246.832       298.46402      7670.722       2977.7072      10648.429      60886.604      87120        
    359000   359000         2247.4931      306.01901      7706.4925      3053.0817      10759.574      61128.753      87120        
    359100   359100         2248.1513      304.97113      7676.832       3042.6272      10719.459      60940.13       87120        
    359200   359200         2248.8124      296.65203      7683.3873      2959.6294      10643.017      60955.626      87120        
    359300   359300         2249.4741      301.43031      7633.2217      3007.3012      10640.523      60826.134      87120        
    359400   359400         2250.1413      294.73588      7683.219       2940.5124      10623.731      60935.981      87120        
    359500   359500         2250.8193      296.79726      7699.5798      2961.0784      10660.658      61037.109      87120        
    359600   359600         2251.4884      306.22397      7674.4312      3055.1265      10729.558      60982.903      87120        
    359700   359700         2252.1515      301.88853      7694.1478      3011.8728      10706.021      61049.971      87120        
    359800   359800         2252.8219      297.55698      7657.333       2968.6579      10625.991      60959.069      87120        
    359900   359900         2253.4788      285.36293      7665.3118      2847.0007      10512.312      60898.32       87120        
    360000   360000         2254.1265      296.74205      7645.5113      2960.5275      10606.039      60858.039      87120        
    360100   360100         2254.7737      299.13333      7695.6872      2984.3848      10680.072      61080.999      87120        
    360200   360200         2255.4167      298.47956      7735.8519      2977.8622      10713.714      61193.754      87120        
    360300   360300         2256.0639      308.45284      7627.1577      3077.3635      10704.521      60792.167      87120        
    360400   360400         2256.7106      296.36564      7640.5402      2956.7722      10597.312      60810.396      87120        
    360500   360500         2257.3612      297.79976      7637.9039      2971.0801      10608.984      60784.817      87120        
    360600   360600         2258.0164      298.00183      7713.1394      2973.096       10686.235      61092.075      87120        
    360700   360700         2258.6716      303.0491       7715.6952      3023.4515      10739.147      61093.182      87120        
    360800   360800         2259.3323      302.08862      7686.7816      3013.869       10700.651      61014.409      87120        
    360900   360900         2259.9957      302.55157      7630.0564      3018.4878      10648.544      60781.732      87120        
    361000   361000         2260.6586      293.87141      7681.7388      2931.8879      10613.627      60927.321      87120        
    361100   361100         2261.3245      297.99906      7703.3906      2973.0685      10676.459      61141.631      87120        
    361200   361200         2261.9864      304.80911      7727.7249      3041.0108      10768.736      61171.197      87120        
    361300   361300         2262.6552      303.60355      7693.3141      3028.9831      10722.297      60980.518      87120        
    361400   361400         2263.3192      296.14115      7701.17        2954.5325      10655.702      61022.268      87120        
    361500   361500         2263.9878      301.94798      7635.8633      3012.466       10648.329      60754.316      87120        
    361600   361600         2264.6581      296.80516      7727.9565      2961.1571      10689.114      61155.908      87120        
    361700   361700         2265.3156      304.93571      7766.8604      3042.2738      10809.134      61312.067      87120        
    361800   361800         2265.9919      308.17227      7695.1619      3074.5643      10769.726      61043.893      87120        
    361900   361900         2266.656       300.79481      7675.6514      3000.961       10676.612      60988.56       87120        
    362000   362000         2267.3234      299.65678      7657.3378      2989.6071      10646.945      60923.794      87120        
    362100   362100         2267.9912      293.07127      7744.3512      2923.905       10668.256      61162.213      87120        
    362200   362200         2268.6455      302.05462      7744.7813      3013.5299      10758.311      61230.711      87120        
    362300   362300         2269.3197      300.53062      7747.113       2998.3253      10745.438      61208.626      87120        
    362400   362400         2269.9942      297.51783      7733.2974      2968.2673      10701.565      61186.818      87120        
    362500   362500         2270.6543      298.59197      7690.9263      2978.9838      10669.91       61031.793      87120        
    362600   362600         2271.323       293.33274      7719.8148      2926.5137      10646.328      61000.045      87120        
    362700   362700         2271.9824      302.81748      7630.7232      3021.1407      10651.864      60759.128      87120        
    362800   362800         2272.6449      300.57959      7684.8154      2998.8138      10683.629      60998.88       87120        
    362900   362900         2273.3157      308.27442      7687.7641      3075.5833      10763.347      60999.75       87120        
    363000   363000         2273.9774      303.14978      7771.7612      3024.456       10796.217      61349.016      87120        
    363100   363100         2274.6355      298.38461      7717.3476      2976.915       10694.263      61117.075      87120        
    363200   363200         2275.3083      297.78812      7647.6585      2970.964       10618.622      60848.908      87120        
    363300   363300         2275.9883      299.7011       7674.4306      2990.0493      10664.48       60968.849      87120        
    363400   363400         2276.649       304.80767      7687.5818      3040.9964      10728.578      60976.274      87120        
    363500   363500         2277.3199      301.12237      7700.6125      3004.229       10704.841      61041.341      87120        
    363600   363600         2277.9863      300.72531      7644.6652      3000.2677      10644.933      60829.235      87120        
    363700   363700         2278.6547      283.7239       7701.1995      2830.6485      10531.848      60930.322      87120        
    363800   363800         2279.3315      295.94047      7682.0227      2952.5304      10634.553      60987.805      87120        
    363900   363900         2280.0132      302.44576      7693.4854      3017.4322      10710.918      61043.577      87120        
    364000   364000         2280.6998      301.47002      7707.6028      3007.6974      10715.3        61097.344      87120        
    364100   364100         2281.3643      295.51915      7688.7687      2948.327       10637.096      61047.837      87120        
    364200   364200         2282.0433      290.10653      7687.6175      2894.3265      10581.944      60844.575      87120        
    364300   364300         2282.7244      302.24082      7664.2899      3015.3876      10679.677      60899.951      87120        
    364400   364400         2283.4011      302.49758      7705.2902      3017.9491      10723.239      61001.611      87120        
    364500   364500         2284.0799      297.96749      7733.348       2972.7535      10706.102      61071.6        87120        
    364600   364600         2284.7611      298.52705      7693.4625      2978.3361      10671.799      60998.078      87120        
    364700   364700         2285.4413      294.3678       7696.3198      2936.8402      10633.16       60924.732      87120        
    364800   364800         2286.1103      299.27072      7665.3361      2985.7555      10651.092      60895.231      87120        
    364900   364900         2286.7891      304.98304      7701.7587      3042.746       10744.505      61116.249      87120        
    365000   365000         2287.4578      307.32905      7694.1519      3066.1516      10760.303      61005.758      87120        
    365100   365100         2288.1255      298.13942      7680.394       2974.4688      10654.863      60992.156      87120        
    365200   365200         2288.7808      295.37602      7698.2757      2946.899       10645.175      60975.817      87120        
    365300   365300         2289.4455      300.57294      7670.0397      2998.7474      10668.787      60920.743      87120        
    365400   365400         2290.1166      299.68596      7695.2592      2989.8983      10685.157      61021.558      87120        
    365500   365500         2290.7849      298.38345      7710.2028      2976.9034      10687.106      61056.391      87120        
    365600   365600         2291.4462      299.84864      7649.8798      2991.5213      10641.401      60895.19       87120        
    365700   365700         2292.1147      292.75552      7702.6273      2920.7548      10623.382      61023.396      87120        
    365800   365800         2292.7735      305.05902      7657.123       3043.504       10700.627      60857.357      87120        
    365900   365900         2293.4438      302.32535      7695.5685      3016.2308      10711.799      61065.015      87120        
    366000   366000         2294.0988      303.28482      7658.0775      3025.8032      10683.881      60856.145      87120        
    366100   366100         2294.7512      297.51247      7668.3917      2968.2138      10636.606      60896.331      87120        
    366200   366200         2295.4179      292.6918       7707.5608      2920.1191      10627.68       61073.909      87120        
    366300   366300         2296.0859      303.20047      7721.3707      3024.9618      10746.332      61039.575      87120        
    366400   366400         2296.7435      308.05763      7659.0922      3073.4205      10732.513      60850.947      87120        
    366500   366500         2297.4173      299.13057      7632.398       2984.3572      10616.755      60729.911      87120        
    366600   366600         2298.105       295.3491       7679.3378      2946.6304      10625.968      60866.218      87120        
    366700   366700         2298.7858      303.69601      7706.063       3029.9057      10735.969      61112.016      87120        
    366800   366800         2299.4586      305.7952       7688.3283      3050.8488      10739.177      60975.655      87120        
    366900   366900         2300.1431      298.22784      7676.5688      2975.351       10651.92       60952.491      87120        
    367000   367000         2300.815       299.16819      7642.7218      2984.7326      10627.454      60826.117      87120        
    367100   367100         2301.4925      302.24122      7637.5972      3015.3915      10652.989      60683.839      87120        
    367200   367200         2302.1621      300.12355      7702.0069      2994.264       10696.271      60988.43       87120        
    367300   367300         2302.8363      304.74088      7718.4949      3040.33        10758.825      61153.493      87120        
    367400   367400         2303.5216      301.10364      7693.9593      3004.0421      10698.001      61006.059      87120        
    367500   367500         2304.1986      298.83076      7609.4094      2981.3661      10590.776      60709.702      87120        
    367600   367600         2304.8778      294.11786      7662.1943      2934.3466      10596.541      60851.792      87120        
    367700   367700         2305.5621      303.04182      7660.6033      3023.3789      10683.982      60917.985      87120        
    367800   367800         2306.2273      300.77924      7695.5875      3000.8057      10696.393      61050.37       87120        
    367900   367900         2306.9045      302.06823      7661.7977      3013.6656      10675.463      60850.176      87120        
    368000   368000         2307.5854      295.97075      7646.5303      2952.8324      10599.363      60851.282      87120        
    368100   368100         2308.2439      295.36633      7614.1645      2946.8023      10560.967      60649.712      87120        
    368200   368200         2308.902       301.98334      7652.356       3012.8187      10665.175      60820.421      87120        
    368300   368300         2309.5749      302.73801      7671.1721      3020.3479      10691.52       60892.902      87120        
    368400   368400         2310.241       294.64227      7720.9672      2939.5785      10660.546      61069.227      87120        
    368500   368500         2310.9122      302.92158      7641.7014      3022.1794      10663.881      60911.759      87120        
    368600   368600         2311.5996      305.67618      7676.6509      3049.6613      10726.312      60938.721      87120        
    368700   368700         2312.2728      305.19529      7684.1927      3044.8636      10729.056      60887.925      87120        
    368800   368800         2312.9594      295.53402      7694.8009      2948.4753      10643.276      60959.441      87120        
    368900   368900         2313.6434      296.4879       7712.8557      2957.9919      10670.848      61003.443      87120        
    369000   369000         2314.3102      298.3404       7764.0716      2976.4739      10740.546      61265.849      87120        
    369100   369100         2314.9694      303.44031      7717.192       3027.3546      10744.547      61092.766      87120        
    369200   369200         2315.6243      303.8283       7629.2677      3031.2254      10660.493      60711.954      87120        
    369300   369300         2316.2768      300.61748      7590.9711      2999.1918      10590.163      60619.255      87120        
    369400   369400         2316.9319      303.29951      7624.5834      3025.9499      10650.533      60739.109      87120        
    369500   369500         2317.593       302.8457       7678.4774      3021.4222      10699.9        61019.594      87120        
    369600   369600         2318.252       300.87648      7677.3889      3001.7758      10679.165      60971.288      87120        
    369700   369700         2318.9042      301.20008      7620.7537      3005.0043      10625.758      60624.574      87120        
    369800   369800         2319.5461      292.45561      7647.048       2917.7628      10564.811      60760.421      87120        
    369900   369900         2320.1987      299.63432      7648.3546      2989.3831      10637.738      60759.129      87120        
    370000   370000         2320.8378      305.629        7686.8509      3049.1906      10736.041      60988.66       87120        
    370100   370100         2321.4791      300.0561       7707.4486      2993.5911      10701.04       61073.398      87120        
    370200   370200         2322.1242      301.78597      7642.1217      3010.8496      10652.971      60776.988      87120        
    370300   370300         2322.7614      299.42331      7641.3284      2987.2778      10628.606      60806.914      87120        
    370400   370400         2323.412       299.40939      7664.6269      2987.1389      10651.766      60885.381      87120        
    370500   370500         2324.0664      300.92231      7678.492       3002.233       10680.725      60889.624      87120        
    370600   370600         2324.717       299.366        7725.4852      2986.7061      10712.191      61149.904      87120        
    370700   370700         2325.3829      303.04227      7710.449       3023.3834      10733.832      61001.001      87120        
    370800   370800         2326.0404      300.02298      7638.4426      2993.2606      10631.703      60795.701      87120        
    370900   370900         2326.7139      290.18416      7686.4291      2895.101       10581.53       60957.927      87120        
    371000   371000         2327.3924      297.1459       7683.336       2964.5567      10647.893      60895.552      87120        
    371100   371100         2328.0449      298.83807      7713.7837      2981.4391      10695.223      61069.215      87120        
    371200   371200         2328.6912      297.57511      7772.1544      2968.8388      10740.993      61290.857      87120        
    371300   371300         2329.3457      310.1094       7699.0173      3093.8905      10792.908      61036.095      87120        
    371400   371400         2329.9968      295.94834      7723.0159      2952.6089      10675.625      61093.497      87120        
    371500   371500         2330.6523      295.18029      7658.4533      2944.9462      10603.4        60765.761      87120        
    371600   371600         2331.3067      296.12445      7631.3988      2954.3659      10585.765      60728.037      87120        
    371700   371700         2331.9728      303.12549      7658.6013      3024.2137      10682.815      60927.616      87120        
    371800   371800         2332.6386      305.06634      7727.4118      3043.5771      10770.989      61157.71       87120        
    371900   371900         2333.3009      303.37924      7717.7951      3026.7452      10744.54       61180.311      87120        
    372000   372000         2333.9457      300.99063      7657.0221      3002.9147      10659.937      60847.705      87120        
    372100   372100         2334.5937      299.55113      7612.5935      2988.5531      10601.147      60637.112      87120        
    372200   372200         2335.2402      296.38025      7667.3337      2956.9179      10624.252      60938.336      87120        
    372300   372300         2335.8794      298.23159      7710.437       2975.3883      10685.825      61062.91       87120        
    372400   372400         2336.5337      305.00439      7661.6919      3042.959       10704.651      60869.77       87120        
    372500   372500         2337.1954      300.72268      7632.6949      3000.2413      10632.936      60818.397      87120        
    372600   372600         2337.8595      295.19422      7630.1998      2945.0852      10575.285      60664.441      87120        
    372700   372700         2338.5226      298.78341      7665.2243      2980.8937      10646.118      60927.394      87120        
    372800   372800         2339.1752      299.70016      7774.0835      2990.04        10764.123      61356.373      87120        
    372900   372900         2339.8385      301.95661      7755.323       3012.552       10767.875      61281.07       87120        
    373000   373000         2340.5068      302.83095      7687.7529      3021.2752      10709.028      61003.682      87120        
    373100   373100         2341.1583      295.13846      7681.6132      2944.5289      10626.142      60903.22       87120        
    373200   373200         2341.8265      298.57767      7685.166       2978.8411      10664.007      60947.041      87120        
    373300   373300         2342.4803      303.74421      7700.7559      3030.3865      10731.142      61036.656      87120        
    373400   373400         2343.1507      300.95626      7718.6576      3002.5718      10721.229      61094.441      87120        
    373500   373500         2343.8181      293.25923      7624.4009      2925.7802      10550.181      60742.483      87120        
    373600   373600         2344.4912      295.61808      7612.6271      2949.314       10561.941      60727.341      87120        
    373700   373700         2345.1612      299.53831      7684.2493      2988.4252      10672.674      60902.811      87120        
    373800   373800         2345.8306      303.19998      7712.5156      3024.9568      10737.472      61067.802      87120        
    373900   373900         2346.497       303.67607      7697.4925      3029.7066      10727.199      61048.588      87120        
    374000   374000         2347.1741      295.72838      7693.8974      2950.4144      10644.312      60971.485      87120        
    374100   374100         2347.8272      298.71912      7625.4873      2980.2523      10605.74       60777.129      87120        
    374200   374200         2348.4812      308.09874      7647.5879      3073.8306      10721.418      60781.74       87120        
    374300   374300         2349.1333      302.25187      7733.5746      3015.4978      10749.072      61191.78       87120        
    374400   374400         2349.8024      300.16414      7720.9906      2994.6689      10715.66       61156.199      87120        
    374500   374500         2350.4691      294.71991      7734.332       2940.3531      10674.685      61116.179      87120        
    374600   374600         2351.1211      301.71308      7674.4005      3010.1224      10684.523      60958.608      87120        
    374700   374700         2351.7824      305.80028      7704.3722      3050.8995      10755.272      61031.352      87120        
    374800   374800         2352.4257      304.77894      7661.7016      3040.7097      10702.411      60911.902      87120        
    374900   374900         2353.0883      293.81645      7718.3182      2931.3395      10649.658      61113.143      87120        
    375000   375000         2353.7501      295.24037      7741.0393      2945.5457      10686.585      61105.783      87120        
    375100   375100         2354.4005      305.61492      7675.3907      3049.0501      10724.441      60939.197      87120        
    375200   375200         2355.0563      299.07263      7697.0479      2983.7792      10680.827      61017.557      87120        
    375300   375300         2355.7019      295.91424      7682.522       2952.2687      10634.791      60876.19       87120        
    375400   375400         2356.3593      299.59888      7693.6515      2989.0295      10682.681      61052.548      87120        
    375500   375500         2357.0175      308.60226      7686.9527      3078.8541      10765.807      60969.998      87120        
    375600   375600         2357.6707      295.15082      7725.3011      2944.6522      10669.953      61073.141      87120        
    375700   375700         2358.3353      301.36458      7621.0469      3006.6455      10627.692      60741.817      87120        
    375800   375800         2358.9968      297.34794      7702.843       2966.5724      10669.415      60936.789      87120        
    375900   375900         2359.6595      308.2727       7722.5241      3075.5663      10798.09       61115.234      87120        
    376000   376000         2360.3219      305.72083      7721.6472      3050.1068      10771.754      61142.973      87120        
    376100   376100         2360.9705      302.43672      7694.0765      3017.3419      10711.418      60956.374      87120        
    376200   376200         2361.6219      299.67868      7684.833       2989.8257      10674.659      61002.357      87120        
    376300   376300         2362.2704      295.65662      7698.2636      2949.6985      10647.962      60978.995      87120        
    376400   376400         2362.9335      301.03609      7679.5072      3003.3682      10682.875      60979.469      87120        
    376500   376500         2363.594       307.40463      7679.3577      3066.9057      10746.263      61027.136      87120        
    376600   376600         2364.2619      300.34535      7687.2585      2996.4769      10683.735      60930.983      87120        
    376700   376700         2364.9297      293.01298      7703.2794      2923.3235      10626.603      61056.502      87120        
    376800   376800         2365.5893      301.33518      7657.0749      3006.3522      10663.427      60930.606      87120        
    376900   376900         2366.2468      301.35332      7665.8554      3006.5332      10672.389      60844.331      87120        
    377000   377000         2366.9224      300.28277      7665.7112      2995.8525      10661.564      60914.107      87120        
    377100   377100         2367.5775      298.22396      7680.814       2975.3123      10656.126      60917.67       87120        
    377200   377200         2368.2347      302.26767      7661.6398      3015.6554      10677.295      60845.922      87120        
    377300   377300         2368.8942      303.84886      7651.3688      3031.4306      10682.799      60856.608      87120        
    377400   377400         2369.5516      297.68523      7708.3365      2969.9374      10678.274      60986.945      87120        
    377500   377500         2370.2068      301.82582      7663.4663      3011.2472      10674.713      60889.39       87120        
    377600   377600         2370.8569      296.8379       7669.8305      2961.4838      10631.314      60917.833      87120        
    377700   377700         2371.5047      293.68783      7687.0319      2930.0563      10617.088      60880.758      87120        
    377800   377800         2372.1548      306.71259      7664.0955      3060.0013      10724.097      60932.956      87120        
    377900   377900         2372.807       304.65162      7658.9452      3039.4395      10698.385      60853.911      87120        
    378000   378000         2373.4646      294.1967       7703.6664      2935.1332      10638.8        61069.629      87120        
    378100   378100         2374.1224      303.52804      7619.4511      3028.2298      10647.681      60774.506      87120        
    378200   378200         2374.7694      300.42608      7667.9268      2997.2823      10665.209      60839.49       87120        
    378300   378300         2375.4322      308.36089      7653.6575      3076.4461      10730.104      60875.876      87120        
    378400   378400         2376.0834      307.75558      7730.5756      3070.407       10800.983      61102.156      87120        
    378500   378500         2376.7365      304.61177      7662.9748      3039.0419      10702.017      60856.997      87120        
    378600   378600         2377.3852      294.80769      7696.7891      2941.2289      10638.018      61029.243      87120        
    378700   378700         2378.0422      296.80991      7662.9857      2961.2046      10624.19       60862.443      87120        
    378800   378800         2378.7013      301.62557      7666.9458      3009.2493      10676.195      60946.272      87120        
    378900   378900         2379.3618      300.50311      7729.3417      2998.0508      10727.393      61146.665      87120        
    379000   379000         2380.0094      305.60307      7703.9335      3048.9319      10752.865      60963.198      87120        
    379100   379100         2380.6552      292.13104      7741.6349      2914.5246      10656.159      61199.785      87120        
    379200   379200         2381.2957      297.09477      7663.4112      2964.0466      10627.458      60906.286      87120        
    379300   379300         2381.9287      302.33186      7654.0677      3016.2958      10670.363      60861.834      87120        
    379400   379400         2382.5841      303.84102      7667.9877      3031.3524      10699.34       61000.618      87120        
    379500   379500         2383.2182      300.62443      7658.4636      2999.2611      10657.725      60855.817      87120        
    379600   379600         2383.8703      290.40159      7647.08        2897.2702      10544.35       60802.562      87120        
    379700   379700         2384.5227      292.21848      7639.4653      2915.3969      10554.862      60853.627      87120        
    379800   379800         2385.1821      295.8938       7703.9365      2952.0647      10656.001      61030.716      87120        
    379900   379900         2385.8347      301.96231      7679.954       3012.6089      10692.563      61027.463      87120        
    380000   380000         2386.4854      301.28963      7727.7184      3005.8977      10733.616      61190.982      87120        
    380100   380100         2387.1239      303.48716      7728.8487      3027.8219      10756.671      61150.21       87120        
    380200   380200         2387.7777      298.10401      7716.9175      2974.1155      10691.033      61168.173      87120        
    380300   380300         2388.4391      299.51731      7673.4458      2988.2157      10661.661      60986.336      87120        
    380400   380400         2389.0921      297.49768      7708.9478      2968.0663      10677.014      61084.962      87120        
    380500   380500         2389.763       307.9842       7660.951       3072.6879      10733.639      60970.201      87120        
    380600   380600         2390.4252      311.69056      7694.7318      3109.6655      10804.397      61032.111      87120        
    380700   380700         2391.0831      303.62368      7680.634       3029.184       10709.818      61018.362      87120        
    380800   380800         2391.7474      298.88798      7668.2371      2981.937       10650.174      60931.16       87120        
    380900   380900         2392.4018      303.2056       7626.9461      3025.0129      10651.959      60717.251      87120        
    381000   381000         2393.043       296.94505      7693.6197      2962.5529      10656.173      61095.3        87120        
    381100   381100         2393.6901      304.13896      7685.2849      3034.3248      10719.61       61063.497      87120        
    381200   381200         2394.3313      307.43625      7676.2578      3067.2211      10743.479      61024.893      87120        
    381300   381300         2394.9696      298.07266      7678.3244      2973.8028      10652.127      60995.522      87120        
    381400   381400         2395.6146      297.59097      7651.0833      2968.997       10620.08       60851.014      87120        
    381500   381500         2396.2622      302.12015      7638.5109      3014.1836      10652.694      60866.87       87120        
    381600   381600         2396.9123      310.82709      7685.8183      3101.0508      10786.869      61076.282      87120        
    381700   381700         2397.5723      308.81949      7659.1679      3081.0214      10740.189      60893.248      87120        
    381800   381800         2398.2225      298.18537      7631.3753      2974.9272      10606.303      60793.5        87120        
    381900   381900         2398.8743      300.47236      7621.0564      2997.744       10618.8        60770.91       87120        
    382000   382000         2399.516       305.3936       7653.407       3046.8421      10700.249      60921.653      87120        
    382100   382100         2400.1633      302.40869      7707.8326      3017.0623      10724.895      61131.928      87120        
    382200   382200         2400.8081      295.81377      7668.4224      2951.2663      10619.689      60914          87120        
    382300   382300         2401.4523      289.94258      7678.8434      2892.6908      10571.534      60952.846      87120        
    382400   382400         2402.0965      300.59003      7631.0457      2998.918       10629.964      60772.176      87120        
    382500   382500         2402.7426      303.96382      7651.7419      3032.5775      10684.319      60817.667      87120        
    382600   382600         2403.3913      300.59625      7684.0904      2998.98        10683.07       61022.936      87120        
    382700   382700         2404.0311      292.91859      7686.7795      2922.3817      10609.161      60974.58       87120        
    382800   382800         2404.6862      294.54442      7652.0251      2938.6023      10590.627      60854.839      87120        
    382900   382900         2405.3378      305.76168      7665.0728      3050.5144      10715.587      60926.477      87120        
    383000   383000         2405.9837      305.06637      7650.2847      3043.5774      10693.862      60863.551      87120        
    383100   383100         2406.6328      300.73467      7661.9294      3000.3611      10662.29       60903.486      87120        
    383200   383200         2407.2798      301.94319      7613.9954      3012.4182      10626.414      60747.269      87120        
    383300   383300         2407.9166      294.91939      7629.9348      2942.3433      10572.278      60695.115      87120        
    383400   383400         2408.5658      295.70097      7624.6692      2950.1409      10574.81       60782.175      87120        
    383500   383500         2409.216       302.69762      7665.2522      3019.9449      10685.197      60906.657      87120        
    383600   383600         2409.8749      302.8449       7687.2638      3021.4142      10708.678      60998.92       87120        
    383700   383700         2410.5254      302.66835      7641.6475      3019.6529      10661.3        60868.588      87120        
    383800   383800         2411.1745      293.60411      7669.2454      2929.2211      10598.467      60903.068      87120        
    383900   383900         2411.8199      300.29985      7651.1238      2996.0229      10647.147      60923.705      87120        
    384000   384000         2412.4576      300.09717      7679.1425      2994.0008      10673.143      60991.324      87120        
    384100   384100         2413.1009      299.85926      7681.6775      2991.6273      10673.305      60974.659      87120        
    384200   384200         2413.7369      300.75665      7669.723       3000.5803      10670.303      60978.403      87120        
    384300   384300         2414.3655      303.49336      7713.7577      3027.8838      10741.642      61123.127      87120        
    384400   384400         2415.0077      311.62911      7662.7405      3109.0523      10771.793      60935.561      87120        
    384500   384500         2415.6515      299.17455      7678.8968      2984.7961      10663.693      60986.936      87120        
    384600   384600         2416.2894      295.54124      7709.1951      2948.5473      10657.742      61092.39       87120        
    384700   384700         2416.949       299.81443      7694.8673      2991.18        10686.047      61048.589      87120        
    384800   384800         2417.6081      305.36977      7688.2771      3046.6043      10734.881      61022.983      87120        
    384900   384900         2418.2624      306.96118      7671.8068      3062.4815      10734.288      60910.392      87120        
    385000   385000         2418.9211      288.38114      7743.7621      2877.1127      10620.875      61168.088      87120        
    385100   385100         2419.5664      298.82932      7687.4326      2981.3517      10668.784      61059.636      87120        
    385200   385200         2420.2124      300.57556      7729.5052      2998.7736      10728.279      61168.525      87120        
    385300   385300         2420.8597      304.66045      7711.0386      3039.5276      10750.566      61185.446      87120        
    385400   385400         2421.5214      292.81871      7727.1293      2921.3853      10648.515      61089.752      87120        
    385500   385500         2422.1544      296.4478       7641.5241      2957.5919      10599.116      60812.183      87120        
    385600   385600         2422.8045      304.65146      7639.5753      3039.4379      10679.013      60856.066      87120        
    385700   385700         2423.4456      303.17089      7715.6736      3024.6666      10740.34       61091.646      87120        
    385800   385800         2424.0887      302.54896      7708.7997      3018.4617      10727.261      61148.93       87120        
    385900   385900         2424.7285      300.68597      7686.7508      2999.8751      10686.626      61079.24       87120        
    386000   386000         2425.359       300.0603       7650.1062      2993.633       10643.739      60862.063      87120        
    386100   386100         2425.9968      299.80725      7670.7193      2991.1084      10661.828      60991.588      87120        
    386200   386200         2426.6328      307.68576      7686.0423      3069.7104      10755.753      61044.769      87120        
    386300   386300         2427.2748      307.73373      7690.5142      3070.189       10760.703      61088.498      87120        
    386400   386400         2427.9174      297.80945      7677.2837      2971.1768      10648.461      61083.986      87120        
    386500   386500         2428.5711      296.82513      7641.4437      2961.3564      10602.8        60783.408      87120        
    386600   386600         2429.2264      301.37843      7622.267       3006.7836      10629.051      60765.781      87120        
    386700   386700         2429.8737      305.62913      7640.839       3049.1919      10690.031      60837.996      87120        
    386800   386800         2430.5383      300.11263      7721.1086      2994.155       10715.264      61081.309      87120        
    386900   386900         2431.1978      295.43036      7735.3048      2947.4411      10682.746      61172.634      87120        
    387000   387000         2431.8693      296.75038      7657.1657      2960.6107      10617.776      60845.45       87120        
    387100   387100         2432.5285      298.58862      7668.1431      2978.9503      10647.093      60871.663      87120        
    387200   387200         2433.1961      304.14073      7688.8405      3034.3425      10723.183      61021.081      87120        
    387300   387300         2433.8564      307.25983      7642.6897      3065.4611      10708.151      60796.242      87120        
    387400   387400         2434.504       297.15207      7651.2623      2964.6182      10615.881      60899.878      87120        
    387500   387500         2435.1625      292.35688      7707.924       2916.7777      10624.702      61067.873      87120        
    387600   387600         2435.8184      301.69336      7706.5103      3009.9256      10716.436      61036.024      87120        
    387700   387700         2436.4743      304.62022      7726.6229      3039.1262      10765.749      61214.579      87120        
    387800   387800         2437.1251      290.14038      7791.3808      2894.6641      10686.045      61348.176      87120        
    387900   387900         2437.778       302.53927      7645.0311      3018.3651      10663.396      60840.297      87120        
    388000   388000         2438.4166      296.15779      7697.4181      2954.6985      10652.117      61070.152      87120        
    388100   388100         2439.0597      305.60684      7724.8482      3048.9695      10773.818      61091.738      87120        
    388200   388200         2439.6968      309.11175      7713.1073      3083.9372      10797.045      61183.557      87120        
    388300   388300         2440.3391      297.44721      7772.2967      2967.5627      10739.859      61356.551      87120        
    388400   388400         2440.979       301.31825      7718.8205      3006.1833      10725.004      61116.669      87120        
    388500   388500         2441.6285      300.91948      7680.6586      3002.2048      10682.863      61052.431      87120        
    388600   388600         2442.2655      293.83959      7676.8286      2931.5703      10608.399      60960.529      87120        
    388700   388700         2442.9106      297.38277      7684.5406      2966.9199      10651.461      61042.507      87120        
    388800   388800         2443.5578      299.82413      7677.2611      2991.2767      10668.538      61049.768      87120        
    388900   388900         2444.2061      298.35382      7673.9047      2976.6078      10650.513      60913.359      87120        
    389000   389000         2444.8616      299.54843      7650.0936      2988.5261      10638.62       60824.816      87120        
    389100   389100         2445.514       298.99414      7687.9562      2982.9961      10670.952      61014.798      87120        
    389200   389200         2446.164       307.80914      7714.8553      3070.9414      10785.797      61103.337      87120        
    389300   389300         2446.802       306.6493       7741.2863      3059.37        10800.656      61254.819      87120        
    389400   389400         2447.4517      298.05861      7707.7362      2973.6626      10681.399      61029.878      87120        
    389500   389500         2448.1013      297.37176      7663.2177      2966.81        10630.028      60889.464      87120        
    389600   389600         2448.7526      300.64988      7635.6374      2999.5151      10635.152      60844.277      87120        
    389700   389700         2449.3986      303.3942       7684.8151      3026.8945      10711.71       60988.917      87120        
    389800   389800         2450.0627      311.63652      7669.185       3109.1263      10778.311      60993.449      87120        
    389900   389900         2450.7119      300.21826      7651.636       2995.2089      10646.845      60902.07       87120        
    390000   390000         2451.3619      293.57717      7668.0263      2928.9522      10596.979      60858.052      87120        
    390100   390100         2451.9899      298.79753      7686.0665      2981.0346      10667.101      60977.903      87120        
    390200   390200         2452.6321      305.0346       7681.6863      3043.2604      10724.947      61002.298      87120        
    390300   390300         2453.2766      299.45098      7686.7964      2987.5539      10674.35       61020.953      87120        
    390400   390400         2453.9271      291.05173      7663.445       2903.7565      10567.201      60897.447      87120        
    390500   390500         2454.5743      296.68737      7612.9293      2959.982       10572.911      60687.591      87120        
    390600   390600         2455.2299      301.89587      7630.0649      3011.9461      10642.011      60795.989      87120        
    390700   390700         2455.8846      302.20345      7681.8236      3015.0146      10696.838      61014.157      87120        
    390800   390800         2456.5376      302.34232      7702.232       3016.4002      10718.632      61012.201      87120        
    390900   390900         2457.1817      300.63988      7658.5777      2999.4153      10657.993      60891.828      87120        
    391000   391000         2457.8387      292.20441      7648.2657      2915.2566      10563.522      60814.777      87120        
    391100   391100         2458.4825      299.90856      7627.5895      2992.1191      10619.709      60749.071      87120        
    391200   391200         2459.126       306.54644      7620.0454      3058.3437      10678.389      60807.854      87120        
    391300   391300         2459.7712      298.26257      7689.2463      2975.6974      10664.944      61012.641      87120        
    391400   391400         2460.4016      298.83443      7694.9796      2981.4028      10676.382      61058.231      87120        
    391500   391500         2461.0415      304.28819      7652.2519      3035.8137      10688.066      60896.936      87120        
    391600   391600         2461.6755      304.59381      7667.4092      3038.8628      10706.272      60953.674      87120        
    391700   391700         2462.321       296.00634      7701.7397      2953.1876      10654.927      61014.559      87120        
    391800   391800         2462.9731      293.58171      7708.974       2928.9976      10637.972      61015.252      87120        
    391900   391900         2463.6254      299.67001      7700.6172      2989.7392      10690.356      61041.58       87120        
    392000   392000         2464.2677      304.43841      7697.7067      3037.3124      10735.019      61040.11       87120        
    392100   392100         2464.9266      298.23987      7708.1533      2975.4709      10683.624      61030.108      87120        
    392200   392200         2465.5701      297.50607      7681.1753      2968.15        10649.325      60930.067      87120        
    392300   392300         2466.2267      301.2126       7670.0067      3005.1292      10675.136      60942.988      87120        
    392400   392400         2466.8943      302.62914      7679.2215      3019.2617      10698.483      60996.769      87120        
    392500   392500         2467.5595      300.76545      7679.3411      3000.6681      10680.009      61010.216      87120        
    392600   392600         2468.2292      297.47369      7630.1334      2967.827       10597.96       60757.88       87120        
    392700   392700         2468.8962      291.00572      7644.3044      2903.2975      10547.602      60812.5        87120        
    392800   392800         2469.5444      303.15507      7629.0795      3024.5088      10653.588      60809.927      87120        
    392900   392900         2470.2089      302.39337      7678.4468      3016.9094      10695.356      60923.658      87120        
    393000   393000         2470.8719      300.30489      7682.0065      2996.0731      10678.08       61008.773      87120        
    393100   393100         2471.5106      298.83614      7675.148       2981.4198      10656.568      60962.911      87120        
    393200   393200         2472.1586      299.73596      7674.584       2990.3971      10664.981      60934.463      87120        
    393300   393300         2472.8075      310.69292      7615.7728      3099.7122      10715.485      60714.437      87120        
    393400   393400         2473.4548      305.9505       7611.0055      3052.3981      10663.404      60679.036      87120        
    393500   393500         2474.1001      296.31037      7669.9346      2956.2208      10626.155      60930.052      87120        
    393600   393600         2474.7519      297.48741      7720.7587      2967.9638      10688.723      61164.052      87120        
    393700   393700         2475.419       302.22938      7708.7557      3015.2734      10724.029      61083.46       87120        
    393800   393800         2476.0799      305.1881       7650.6905      3044.7919      10695.482      60956.859      87120        
    393900   393900         2476.723       297.48984      7699.2021      2967.9881      10667.19       61018.092      87120        
    394000   394000         2477.3789      297.99667      7712.2834      2973.0446      10685.328      61134.701      87120        
    394100   394100         2478.0168      299.76694      7759.3785      2990.7062      10750.085      61309.519      87120        
    394200   394200         2478.6682      311.13506      7680.5298      3104.1234      10784.653      61006.707      87120        
    394300   394300         2479.3209      301.2944       7663.5861      3005.9453      10669.531      60931.511      87120        
    394400   394400         2479.9597      292.95793      7696.4048      2922.7743      10619.179      61008.82       87120        
    394500   394500         2480.6098      301.04725      7679.7146      3003.4796      10683.194      60945.809      87120        
    394600   394600         2481.2655      299.54055      7723.5488      2988.4476      10711.996      61199.569      87120        
    394700   394700         2481.9198      297.26973      7702.7052      2965.7921      10668.497      61120.909      87120        
    394800   394800         2482.5644      287.0719       7692.8915      2864.0507      10556.942      61024.826      87120        
    394900   394900         2483.2217      299.02891      7665.5371      2983.343       10648.88       60916.525      87120        
    395000   395000         2483.8795      298.0138       7717.7607      2973.2155      10690.976      61053.963      87120        
    395100   395100         2484.5226      296.96732      7706.882       2962.775       10669.657      61030.1        87120        
    395200   395200         2485.1837      298.67695      7659.6313      2979.8316      10639.463      60890.411      87120        
    395300   395300         2485.8434      295.25228      7682.6629      2945.6644      10628.327      60907.278      87120        
    395400   395400         2486.4916      302.24772      7719.0856      3015.4563      10734.542      61150.846      87120        
    395500   395500         2487.1466      303.75763      7716.8945      3030.5204      10747.415      61105.451      87120        
    395600   395600         2487.7929      299.10969      7700.0109      2984.1489      10684.16       60970.169      87120        
    395700   395700         2488.4521      301.50274      7627.51        3008.0239      10635.534      60746.036      87120        
    395800   395800         2489.0997      296.44868      7652.8554      2957.6006      10610.456      60805.624      87120        
    395900   395900         2489.7469      288.45688      7695.2739      2877.8683      10573.142      61081.838      87120        
    396000   396000         2490.4079      298.43624      7671.6009      2977.4301      10649.031      60964.591      87120        
    396100   396100         2491.0663      302.54142      7662.3734      3018.3865      10680.76       60829.86       87120        
    396200   396200         2491.7178      297.82917      7707.3456      2971.3735      10678.719      61017.416      87120        
    396300   396300         2492.3667      302.52382      7671.2536      3018.2109      10689.465      60906.278      87120        
    396400   396400         2493.0074      297.00259      7696.9246      2963.1269      10660.051      61030.955      87120        
    396500   396500         2493.6575      296.4025       7686.407       2957.14        10643.547      61015.128      87120        
    396600   396600         2494.3137      302.7634       7706.2431      3020.6012      10726.844      61012.963      87120        
    396700   396700         2494.9699      307.81007      7687.9048      3070.9507      10758.855      61030.43       87120        
    396800   396800         2495.618       301.63983      7712.9011      3009.3916      10722.293      61055.873      87120        
    396900   396900         2496.2724      298.03095      7712.5398      2973.3866      10685.926      61066.655      87120        
    397000   397000         2496.936       297.87749      7698.4206      2971.8556      10670.276      61036.579      87120        
    397100   397100         2497.5913      303.66891      7620.9471      3029.6352      10650.582      60766.271      87120        
    397200   397200         2498.2308      300.22404      7663.0845      2995.2666      10658.351      60902.914      87120        
    397300   397300         2498.8892      312.42703      7671.9139      3117.013       10788.927      61028.25       87120        
    397400   397400         2499.5324      303.12235      7721.6647      3024.1823      10745.847      61154.836      87120        
    397500   397500         2500.1871      296.73581      7738.2734      2960.4653      10698.739      61232.172      87120        
    397600   397600         2500.8445      304.12184      7664.9702      3034.154       10699.124      60943.21       87120        
    397700   397700         2501.4983      301.00398      7655.1951      3003.0478      10658.243      60839.267      87120        
    397800   397800         2502.1553      290.15335      7695.4954      2894.7936      10590.289      60993.792      87120        
    397900   397900         2502.8018      298.15607      7697.8246      2974.6349      10672.459      61064.556      87120        
    398000   398000         2503.4593      304.80116      7696.3601      3040.9315      10737.292      61044.771      87120        
    398100   398100         2504.1074      297.18672      7732.5159      2964.9639      10697.48       61170.179      87120        
    398200   398200         2504.7575      301.72315      7678.8292      3010.2229      10689.052      60938.281      87120        
    398300   398300         2505.4098      305.99186      7657.2634      3052.8108      10710.074      60900.569      87120        
    398400   398400         2506.0573      296.14789      7732.0188      2954.5998      10686.619      61195.648      87120        
    398500   398500         2506.6967      296.34575      7685.5546      2956.5737      10642.128      60983.731      87120        
    398600   398600         2507.3572      297.1806       7659.8702      2964.9029      10624.773      60930.427      87120        
    398700   398700         2508.0171      300.35728      7684.5702      2996.5959      10681.166      60966.666      87120        
    398800   398800         2508.6828      306.66574      7682.0134      3059.534       10741.547      60948.086      87120        
    398900   398900         2509.3453      299.67265      7685.7813      2989.7655      10675.547      60971.732      87120        
    399000   399000         2509.9973      297.06441      7666.0167      2963.7436      10629.76       60889.522      87120        
    399100   399100         2510.6395      299.7127       7644.5078      2990.1651      10634.673      60860.899      87120        
    399200   399200         2511.2934      298.94356      7679.0019      2982.4915      10661.493      61034.057      87120        
    399300   399300         2511.9394      303.58861      7685.4343      3028.8341      10714.268      60932.214      87120        
    399400   399400         2512.5899      305.70033      7677.6478      3049.9023      10727.55       61008.661      87120        
    399500   399500         2513.2518      298.89568      7625.4202      2982.0138      10607.434      60760.65       87120        
    399600   399600         2513.9118      294.56627      7668.9964      2938.8202      10607.817      60890.667      87120        
    399700   399700         2514.576       301.05322      7691.6452      3003.5391      10695.184      61064.519      87120        
    399800   399800         2515.2324      304.39643      7693.8133      3036.8936      10730.707      60950.857      87120        
    399900   399900         2515.9095      302.91528      7649.5112      3022.1164      10671.628      60871.808      87120        
    400000   400000         2516.567       298.11288      7630.9595      2974.204       10605.163      60757.924      87120        
    400100   400100         2517.2142      300.05939      7649.0549      2993.6239      10642.679      60808.645      87120        
    400200   400200         2517.8597      298.19231      7712.5114      2974.9965      10687.508      61155.539      87120        
    400300   400300         2518.5125      303.267        7700.3699      3025.6254      10725.995      60938.036      87120        
    400400   400400         2519.1591      303.43868      7672.4597      3027.3383      10699.798      60871.972      87120        
    400500   400500         2519.8047      295.26867      7649.6879      2945.828       10595.516      60855.687      87120        
    400600   400600         2520.4459      286.88204      7702.7014      2862.1565      10564.858      60959.389      87120        
    400700   400700         2521.0956      297.87497      7692.3041      2971.8304      10664.134      61075.927      87120        
    400800   400800         2521.7479      302.68598      7679.2097      3019.8288      10699.039      60955.872      87120        
    400900   400900         2522.4007      295.54523      7759.7568      2948.5871      10708.344      61207.11       87120        
    401000   401000         2523.0612      306.25771      7712.0893      3055.4631      10767.552      61108.243      87120        
    401100   401100         2523.7094      302.47907      7677.8618      3017.7644      10695.626      60901.164      87120        
    401200   401200         2524.3493      296.88273      7674.2489      2961.9311      10636.18       60910.693      87120        
    401300   401300         2525.0142      301.3985       7655.26        3006.9839      10662.244      60898.81       87120        
    401400   401400         2525.676       301.70717      7683.0262      3010.0634      10693.09       60937.946      87120        
    401500   401500         2526.3289      309.54175      7624.9568      3088.2273      10713.184      60777.029      87120        
    401600   401600         2526.9669      293.46522      7660.4246      2927.8354      10588.26       60852.697      87120        
    401700   401700         2527.6106      295.51648      7640.6179      2948.3003      10588.918      60763.8        87120        
    401800   401800         2528.2592      303.61068      7647.8338      3029.0543      10676.888      60899.693      87120        
    401900   401900         2528.9024      302.28774      7684.1478      3015.8556      10700.003      60959.975      87120        
    402000   402000         2529.5595      301.06445      7663.4196      3003.6511      10667.071      60890.862      87120        
    402100   402100         2530.2108      296.3451       7686.6793      2956.5673      10643.247      60985.398      87120        
    402200   402200         2530.8777      310.38179      7680.0754      3096.6081      10776.683      60922.253      87120        
    402300   402300         2531.5312      308.90025      7693.3053      3081.8272      10775.132      61069.972      87120        
    402400   402400         2532.1918      300.79294      7704.1261      3000.9424      10705.068      61041.57       87120        
    402500   402500         2532.839       297.99258      7693.6356      2973.0038      10666.639      61024.41       87120        
    402600   402600         2533.4973      298.70503      7703.6441      2980.1118      10683.756      61090.162      87120        
    402700   402700         2534.1445      309.44826      7664.2902      3087.2945      10751.585      60912.548      87120        
    402800   402800         2534.7922      306.14239      7666.304       3054.3126      10720.617      60973.951      87120        
    402900   402900         2535.4591      296.57108      7697.1661      2958.8218      10655.988      61013.989      87120        
    403000   403000         2536.118       288.1764       7675.668       2875.07        10550.738      60888.498      87120        
    403100   403100         2536.777       288.50842      7716.977       2878.3825      10595.36       61103.898      87120        
    403200   403200         2537.4291      298.46603      7682.8432      2977.7273      10660.57       60913.82       87120        
    403300   403300         2538.0888      303.10021      7687.4887      3023.9615      10711.45       60929.227      87120        
    403400   403400         2538.7526      306.69322      7671.0219      3059.8081      10730.83       60976.462      87120        
    403500   403500         2539.4228      301.67824      7661.3783      3009.7747      10671.153      60891.735      87120        
    403600   403600         2540.0756      294.78162      7697.4299      2940.9688      10638.399      61020.909      87120        
    403700   403700         2540.7208      299.69979      7668.6462      2990.0362      10658.682      61005.438      87120        
    403800   403800         2541.3641      306.35054      7660.2076      3056.3892      10716.597      60837.595      87120        
    403900   403900         2542.0096      313.79209      7655.9343      3130.6319      10786.566      60926.467      87120        
    404000   404000         2542.6587      301.39708      7706.3918      3006.9697      10713.362      61026.93       87120        
    404100   404100         2543.3015      299.9958       7690.6544      2992.9895      10683.644      60968.947      87120        
    404200   404200         2543.9524      299.00875      7675.336       2983.1419      10658.478      61022.963      87120        
    404300   404300         2544.596       296.75953      7738.6566      2960.7019      10699.359      61118.709      87120        
    404400   404400         2545.2487      305.8904       7717.7766      3051.7985      10769.575      61141.853      87120        
    404500   404500         2545.909       306.02124      7679.4411      3053.1039      10732.545      60974.198      87120        
    404600   404600         2546.5654      298.13079      7688.0988      2974.3827      10662.481      60946.122      87120        
    404700   404700         2547.2388      297.8832       7682.9305      2971.9125      10654.843      60993.637      87120        
    404800   404800         2547.9148      298.14955      7692.5553      2974.5699      10667.125      60975.125      87120        
    404900   404900         2548.5907      300.51497      7676.5667      2998.1691      10674.736      60911.131      87120        
    405000   405000         2549.2518      298.83688      7652.2803      2981.4272      10633.708      60911.422      87120        
    405100   405100         2549.9191      290.88359      7686.6496      2902.079       10588.729      60955.296      87120        
    405200   405200         2550.5909      299.83333      7659.1273      2991.3685      10650.496      60859.397      87120        
    405300   405300         2551.2642      303.27964      7693.4017      3025.7516      10719.153      61031.547      87120        
    405400   405400         2551.9385      297.37339      7728.3697      2966.8262      10695.196      61116.516      87120        
    405500   405500         2552.6003      296.13537      7707.6522      2954.4749      10662.127      61031.357      87120        
    405600   405600         2553.2637      304.5984       7692.2322      3038.9086      10731.141      61003.465      87120        
    405700   405700         2553.9266      315.56474      7662.0555      3148.3172      10810.373      60880.997      87120        
    405800   405800         2554.5891      303.79745      7722.9865      3030.9176      10753.904      61135.934      87120        
    405900   405900         2555.2505      298.65035      7732.0758      2979.5663      10711.642      61179.913      87120        
    406000   406000         2555.9074      293.89168      7726.0628      2932.0901      10658.153      61175.038      87120        
    406100   406100         2556.5619      296.76325      7725.1933      2960.739       10685.932      61105.575      87120        
    406200   406200         2557.2147      311.42906      7621.5705      3107.0564      10728.627      60708.346      87120        
    406300   406300         2557.88        296.1509       7713.2584      2954.6298      10667.888      61090.223      87120        
    406400   406400         2558.5332      299.6972       7675.3983      2990.0104      10665.409      60946.33       87120        
    406500   406500         2559.1877      300.91963      7671.4512      3002.2063      10673.657      60951.201      87120        
    406600   406600         2559.8547      299.97197      7687.1816      2992.7517      10679.933      60968.856      87120        
    406700   406700         2560.5082      306.20378      7669.2874      3054.9251      10724.212      60906.364      87120        
    406800   406800         2561.1694      301.13702      7689.206       3004.3751      10693.581      60978.888      87120        
    406900   406900         2561.8321      295.85206      7679.3227      2951.6484      10630.971      60941.882      87120        
    407000   407000         2562.5026      298.55421      7687.6745      2978.607       10666.282      60990.485      87120        
    407100   407100         2563.1652      307.30028      7697.5918      3065.8646      10763.456      61019.853      87120        
    407200   407200         2563.8358      305.21044      7687.0338      3045.0147      10732.049      60959.856      87120        
    407300   407300         2564.5042      297.98957      7729.3062      2972.9737      10702.28       61120.675      87120        
    407400   407400         2565.1635      295.80265      7746.6534      2951.1553      10697.809      61210.209      87120        
    407500   407500         2565.811       301.32255      7688.8671      3006.2261      10695.093      61010.099      87120        
    407600   407600         2566.467       303.68694      7716.837       3029.8151      10746.652      61084.093      87120        
    407700   407700         2567.1208      304.84889      7726.4093      3041.4077      10767.817      61108.042      87120        
    407800   407800         2567.7708      296.00924      7725.8486      2953.2165      10679.065      61130.68       87120        
    407900   407900         2568.4288      297.72261      7717.3379      2970.3104      10687.648      61163.266      87120        
    408000   408000         2569.0896      301.90915      7708.3887      3012.0786      10720.467      61076.586      87120        
    408100   408100         2569.7493      301.47057      7688.977       3007.703       10696.68       60987.411      87120        
    408200   408200         2570.4024      291.95547      7702.3607      2912.7729      10615.134      60987.447      87120        
    408300   408300         2571.052       288.21967      7676.2262      2875.5017      10551.728      60907.153      87120        
    408400   408400         2571.7044      302.05393      7655.5546      3013.523       10669.078      60941.525      87120        
    408500   408500         2572.3542      302.4391       7714.5114      3017.3657      10731.877      61117.356      87120        
    408600   408600         2573.023       296.89996      7746.6446      2962.103       10708.748      61211.551      87120        
    408700   408700         2573.685       304.59765      7687.7684      3038.9011      10726.669      60982.153      87120        
    408800   408800         2574.3614      308.64915      7661.5051      3079.322       10740.827      60863.023      87120        
    408900   408900         2575.02        296.70391      7674.1275      2960.147       10634.275      60905.269      87120        
    409000   409000         2575.6847      294.23446      7715.8113      2935.5099      10651.321      61073.703      87120        
    409100   409100         2576.3355      302.07706      7707.2401      3013.7538      10720.994      61043.726      87120        
    409200   409200         2576.9927      303.83198      7690.4724      3031.2622      10721.735      60960.385      87120        
    409300   409300         2577.6477      295.21926      7693.4875      2945.335       10638.823      60990.037      87120        
    409400   409400         2578.2916      293.58544      7702.7902      2929.0348      10631.825      61039.598      87120        
    409500   409500         2578.9488      299.95949      7690.4542      2992.6272      10683.081      61024.566      87120        
    409600   409600         2579.6043      302.89645      7689.4302      3021.9286      10711.359      61018.31       87120        
    409700   409700         2580.2593      301.95657      7671.0794      3012.5517      10683.631      60887.285      87120        
    409800   409800         2580.9111      293.3457       7671.9004      2926.643       10598.543      60874.936      87120        
    409900   409900         2581.5504      293.8436       7670.3277      2931.6104      10601.938      60845.824      87120        
    410000   410000         2582.2112      307.55076      7658.9014      3068.3635      10727.265      60874.323      87120        
    410100   410100         2582.8744      302.30908      7687.9245      3016.0686      10703.993      60958.965      87120        
    410200   410200         2583.527       294.33247      7722.6718      2936.4878      10659.16       61113.962      87120        
    410300   410300         2584.189       298.40082      7695.8597      2977.0767      10672.936      61030.151      87120        
    410400   410400         2584.8401      305.99689      7658.4717      3052.8609      10711.333      60881.365      87120        
    410500   410500         2585.508       299.78359      7673.7977      2990.8723      10664.67       60905.701      87120        
    410600   410600         2586.17        294.49885      7683.9902      2938.1477      10622.138      60964.668      87120        
    410700   410700         2586.8172      300.47971      7676.0196      2997.8173      10673.837      60978.61       87120        
    410800   410800         2587.4759      303.25172      7679.6366      3025.473       10705.11       60979.707      87120        
    410900   410900         2588.1188      302.89355      7681.0591      3021.8997      10702.959      60932.643      87120        
    411000   411000         2588.7702      296.21225      7666.4825      2955.2419      10621.724      60912.996      87120        
    411100   411100         2589.4049      291.28306      7691.2388      2906.0645      10597.303      60938.528      87120        
    411200   411200         2590.048       301.35671      7691.9876      3006.567       10698.555      60994.717      87120        
    411300   411300         2590.6986      302.34446      7683.7795      3016.4215      10700.201      60984.72       87120        
    411400   411400         2591.3395      295.92846      7681.3621      2952.4105      10633.773      60888.093      87120        
    411500   411500         2591.9934      300.55187      7615.1987      2998.5372      10613.736      60703.168      87120        
    411600   411600         2592.654       306.72911      7646.6451      3060.1662      10706.811      60787.253      87120        
    411700   411700         2593.3136      307.9966       7696.4689      3072.8117      10769.281      61049.914      87120        
    411800   411800         2593.9796      298.22708      7735.5253      2975.3434      10710.869      61258.632      87120        
    411900   411900         2594.6318      298.68559      7694.3625      2979.9178      10674.28       60976.263      87120        
    412000   412000         2595.3004      303.74327      7618.1178      3030.3771      10648.495      60712.021      87120        
    412100   412100         2595.9672      301.07294      7644.5309      3003.7358      10648.267      60743.017      87120        
    412200   412200         2596.6183      301.11163      7659.8984      3004.1218      10664.02       60815.197      87120        
    412300   412300         2597.277       291.1927       7727.7928      2905.163       10632.956      61141.91       87120        
    412400   412400         2597.9246      304.43364      7659.0809      3037.2648      10696.346      60902.338      87120        
    412500   412500         2598.5794      303.87053      7652.3215      3031.6468      10683.968      60829.008      87120        
    412600   412600         2599.2305      298.743        7655.5331      2980.4906      10636.024      60852.867      87120        
    412700   412700         2599.8822      297.99767      7685.8312      2973.0546      10658.886      60915.482      87120        
    412800   412800         2600.5506      306.87448      7682.2557      3061.6165      10743.872      61014.736      87120        
    412900   412900         2601.1974      306.64131      7697.3727      3059.2902      10756.663      61075.793      87120        
    413000   413000         2601.8613      293.09439      7715.2755      2924.1357      10639.411      60940.057      87120        
    413100   413100         2602.519       296.3589       7668.1371      2956.705       10624.842      60886.005      87120        
    413200   413200         2603.1772      304.61562      7674.4646      3039.0803      10713.545      60926.944      87120        
    413300   413300         2603.8358      305.14046      7714.5906      3044.3166      10758.907      61045.163      87120        
    413400   413400         2604.4802      298.02406      7768.7414      2973.3179      10742.059      61352.176      87120        
    413500   413500         2605.134       300.24403      7741.1051      2995.466       10736.571      61218.425      87120        
    413600   413600         2605.7968      301.97513      7695.744       3012.7367      10708.481      61042.39       87120        
    413700   413700         2606.4516      300.68983      7678.466       2999.9136      10678.38       60981.478      87120        
    413800   413800         2607.1006      293.16872      7674.7223      2924.8773      10599.6        60867.068      87120        
    413900   413900         2607.7594      298.20033      7690.9766      2975.0765      10666.053      61031.224      87120        
    414000   414000         2608.423       302.55631      7742.6161      3018.5351      10761.151      61250.166      87120        
    414100   414100         2609.0896      300.39947      7741.0253      2997.0168      10738.042      61142.888      87120        
    414200   414200         2609.748       301.86692      7678.2883      3011.6572      10689.945      60989.11       87120        
    414300   414300         2610.4094      298.79259      7657.5249      2980.9853      10638.51       60843.334      87120        
    414400   414400         2611.0697      295.7291       7643.3513      2950.4216      10593.773      60792.966      87120        
    414500   414500         2611.7359      301.7239       7658.7199      3010.2303      10668.95       60907.801      87120        
    414600   414600         2612.4068      303.23981      7730.0074      3025.3543      10755.362      61112.177      87120        
    414700   414700         2613.0639      299.55651      7748.1406      2988.6068      10736.747      61241.954      87120        
    414800   414800         2613.727       302.40905      7678.9375      3017.0659      10696.003      60974.218      87120        
    414900   414900         2614.3863      294.67972      7705.1887      2939.9522      10645.141      61019.26       87120        
    415000   415000         2615.0513      288.90224      7697.9111      2882.3115      10580.223      61060.956      87120        
    415100   415100         2615.6931      292.07917      7726.5461      2914.007       10640.553      61096.695      87120        
    415200   415200         2616.3478      297.70588      7735.1621      2970.1435      10705.306      61158.501      87120        
    415300   415300         2616.9958      298.6277       7717.575       2979.3402      10696.915      61089.416      87120        
    415400   415400         2617.6439      295.60106      7732.5568      2949.1442      10681.701      61050.893      87120        
    415500   415500         2618.2949      296.85859      7711.5176      2961.6903      10673.208      61038.014      87120        
    415600   415600         2618.9571      293.22687      7713.411       2925.4574      10638.868      61119.161      87120        
    415700   415700         2619.6405      301.46202      7665.2608      3007.6176      10672.878      60832.735      87120        
    415800   415800         2620.3169      304.39315      7686.5931      3036.8608      10723.454      60981.577      87120        
    415900   415900         2620.9892      300.99187      7710.6666      3002.927       10713.594      61058.139      87120        
    416000   416000         2621.66        298.96729      7710.5227      2982.7283      10693.251      61001.881      87120        
    416100   416100         2622.3217      295.03132      7717.3297      2943.4599      10660.79       61063.86       87120        
    416200   416200         2622.9865      288.36007      7679.3057      2876.9025      10556.208      60893.256      87120        
    416300   416300         2623.6451      295.82501      7673.6322      2951.3784      10625.011      60873.765      87120        
    416400   416400         2624.3049      300.5476       7683.9449      2998.4946      10682.44       61005.369      87120        
    416500   416500         2624.9628      296.29365      7766.1771      2956.054       10722.231      61212.468      87120        
    416600   416600         2625.6186      301.84204      7756.4722      3011.409       10767.881      61261.574      87120        
    416700   416700         2626.2634      296.77951      7760.9233      2960.9013      10721.825      61270.687      87120        
    416800   416800         2626.9186      298.52082      7664.4682      2978.2739      10642.742      60889.03       87120        
    416900   416900         2627.5816      298.38005      7696.2503      2976.8695      10673.12       61032.445      87120        
    417000   417000         2628.2424      302.62246      7740.0549      3019.1951      10759.25       61100.39       87120        
    417100   417100         2628.8902      302.17921      7691.5709      3014.7729      10706.344      60978.914      87120        
    417200   417200         2629.5485      299.76891      7663.2187      2990.7259      10653.945      60916.657      87120        
    417300   417300         2630.197       296.31587      7703.3116      2956.2756      10659.587      60883.984      87120        
    417400   417400         2630.8616      302.29114      7706.3996      3015.8896      10722.289      61037.147      87120        
    417500   417500         2631.5295      313.40181      7671.7497      3126.7381      10798.488      60954.842      87120        
    417600   417600         2632.1951      301.26306      7685.3112      3005.6326      10690.944      60929.816      87120        
    417700   417700         2632.8498      299.14266      7646.0899      2984.4779      10630.568      60869.765      87120        
    417800   417800         2633.5203      291.96919      7722.2688      2912.9098      10635.179      61011.335      87120        
    417900   417900         2634.1817      301.96213      7705.6071      3012.6071      10718.214      61050.952      87120        
    418000   418000         2634.8398      305.93676      7678.6495      3052.2611      10730.911      60967.673      87120        
    418100   418100         2635.4909      299.01624      7712.6263      2983.2166      10695.843      60921.119      87120        
    418200   418200         2636.1609      297.10048      7714.1545      2964.1035      10678.258      61052.971      87120        
    418300   418300         2636.8214      299.9563       7682.0334      2992.5954      10674.629      60900.597      87120        
    418400   418400         2637.4869      299.75043      7690.8945      2990.5415      10681.436      60934.104      87120        
    418500   418500         2638.1483      309.18411      7668.1416      3084.6591      10752.801      60876.858      87120        
    418600   418600         2638.8093      301.62047      7739.0545      3009.1985      10748.253      61052.764      87120        
    418700   418700         2639.4574      296.65815      7725.6196      2959.6905      10685.31       61088.929      87120        
    418800   418800         2640.1167      294.84612      7736.3383      2941.6122      10677.951      61134.652      87120        
    418900   418900         2640.7816      304.56158      7667.4423      3038.5413      10705.984      60824.71       87120        
    419000   419000         2641.4415      301.63674      7678.4665      3009.3607      10687.827      60867.988      87120        
    419100   419100         2642.0977      294.83316      7670.4603      2941.483       10611.943      60835.121      87120        
    419200   419200         2642.7515      291.3526       7681.0719      2906.7583      10587.83       60970.759      87120        
    419300   419300         2643.4165      292.79907      7742.6247      2921.1894      10663.814      61204.891      87120        
    419400   419400         2644.0839      300.4535       7695.5872      2997.5558      10693.143      60997.558      87120        
    419500   419500         2644.753       301.77106      7684.7321      3010.7008      10695.433      61000.551      87120        
    419600   419600         2645.4174      298.80445      7767.772       2981.1036      10748.876      61295.68       87120        
    419700   419700         2646.1039      307.89614      7765.8217      3071.8094      10837.631      61278.867      87120        
    419800   419800         2646.7704      303.96214      7717.971       3032.5607      10750.532      61159.461      87120        
    419900   419900         2647.4391      298.07788      7721.9652      2973.8548      10695.82       61107.592      87120        
    420000   420000         2648.0928      302.3264       7687.0962      3016.2414      10703.338      60941.094      87120        
    420100   420100         2648.7511      307.19182      7661.3187      3064.7825      10726.101      60875.37       87120        
    420200   420200         2649.4145      299.30339      7710.3987      2986.0814      10696.48       61035.97       87120        
    420300   420300         2650.0753      291.72907      7744.6862      2910.5142      10655.2        61217.654      87120        
    420400   420400         2650.7293      300.48904      7695.9731      2997.9104      10693.884      61024.05       87120        
    420500   420500         2651.3812      304.86023      7725.0391      3041.5207      10766.56       61128.073      87120        
    420600   420600         2652.0349      307.17479      7672.2011      3064.6126      10736.814      61004.539      87120        
    420700   420700         2652.69        304.20131      7682.4521      3034.9469      10717.399      60927.833      87120        
    420800   420800         2653.345       296.28748      7752.0319      2955.9924      10708.024      61268.272      87120        
    420900   420900         2653.9884      300.71941      7716.2324      3000.2087      10716.441      61184.148      87120        
    421000   421000         2654.6433      295.94633      7727.3169      2952.5888      10679.906      61050.813      87120        
    421100   421100         2655.2905      306.02609      7647.8966      3053.1523      10701.049      60894.72       87120        
    421200   421200         2655.9509      303.47443      7681.7859      3027.695       10709.481      60952.885      87120        
    421300   421300         2656.6228      296.11682      7723.5243      2954.2898      10677.814      61092.547      87120        
    421400   421400         2657.2981      291.87185      7753.8111      2911.9387      10665.75       61296.377      87120        
    421500   421500         2657.9566      299.66985      7749.7976      2989.7375      10739.535      61193.954      87120        
    421600   421600         2658.6266      305.36451      7689.636       3046.5519      10736.188      61037.397      87120        
    421700   421700         2659.299       302.04674      7670.8857      3013.4512      10684.337      60955.915      87120        
    421800   421800         2659.9717      298.76551      7697.2572      2980.7152      10677.972      60970.905      87120        
    421900   421900         2660.6216      295.34266      7729.3982      2946.5661      10675.964      61134.805      87120        
    422000   422000         2661.2825      296.35148      7660.4337      2956.6309      10617.065      60874.322      87120        
    422100   422100         2661.9353      293.00396      7636.3692      2923.2335      10559.603      60751.1        87120        
    422200   422200         2662.5854      298.54647      7662.035       2978.5298      10640.565      60896.687      87120        
    422300   422300         2663.2359      303.08237      7673.2041      3023.7835      10696.988      60908.451      87120        
    422400   422400         2663.8896      306.27711      7625.5442      3055.6566      10681.201      60769.164      87120        
    422500   422500         2664.5363      293.38912      7682.1258      2927.0761      10609.202      60990.083      87120        
    422600   422600         2665.1731      300.01038      7666.2237      2993.1349      10659.359      60856.605      87120        
    422700   422700         2665.8228      301.93753      7686.348       3012.3616      10698.71       60970.707      87120        
    422800   422800         2666.4704      303.66468      7668.3674      3029.5931      10697.96       60919.14       87120        
    422900   422900         2667.1223      299.50714      7698.5178      2988.1142      10686.632      60992.694      87120        
    423000   423000         2667.7708      302.20654      7684.7639      3015.0455      10699.809      60965.928      87120        
    423100   423100         2668.4155      301.36016      7693.023       3006.6014      10699.624      61012.997      87120        
    423200   423200         2669.0656      301.2459       7675.0442      3005.4615      10680.506      60879.036      87120        
    423300   423300         2669.7164      299.84649      7629.7876      2991.4998      10621.287      60789.228      87120        
    423400   423400         2670.3618      295.54151      7654.4029      2948.55        10602.953      60837.383      87120        
    423500   423500         2671.0205      302.80696      7691.1918      3021.0358      10712.228      60911.304      87120        
    423600   423600         2671.6892      308.21293      7661.6103      3074.9698      10736.58       60879.93       87120        
    423700   423700         2672.3504      295.85698      7711.032       2951.6974      10662.729      61059.735      87120        
    423800   423800         2673.0055      297.43895      7663.7935      2967.4803      10631.274      60880.309      87120        
    423900   423900         2673.6669      301.75693      7643.9928      3010.5598      10654.553      60797.069      87120        
    424000   424000         2674.3235      297.96487      7682.9217      2972.7273      10655.649      60877.448      87120        
    424100   424100         2674.9644      296.59642      7645.0911      2959.0746      10604.166      60852.013      87120        
    424200   424200         2675.6097      293.16051      7689.8198      2924.7953      10614.615      61008.947      87120        
    424300   424300         2676.2565      298.80514      7719.9258      2981.1105      10701.036      61033.901      87120        
    424400   424400         2676.903       305.32671      7650.2758      3046.1748      10696.451      60826.585      87120        
    424500   424500         2677.5601      300.91366      7628.8125      3002.1468      10630.959      60684.237      87120        
    424600   424600         2678.209       293.84102      7704.5485      2931.5846      10636.133      61015.442      87120        
    424700   424700         2678.8554      303.96444      7664.3887      3032.5836      10696.972      60920.562      87120        
    424800   424800         2679.5144      297.50304      7730.1903      2968.1198      10698.31       61067.348      87120        
    424900   424900         2680.1599      303.00164      7675.7193      3022.9781      10698.697      60928.708      87120        
    425000   425000         2680.8132      299.96801      7664.0202      2992.7122      10656.732      60878.063      87120        
    425100   425100         2681.4651      297.45133      7675.9416      2967.6038      10643.545      60903.2        87120        
    425200   425200         2682.1206      297.80847      7748.2549      2971.167       10719.422      61209.661      87120        
    425300   425300         2682.7765      307.27172      7726.1399      3065.5797      10791.72       61115.23       87120        
    425400   425400         2683.4324      302.38752      7717.4946      3016.8511      10734.346      61080.478      87120        
    425500   425500         2684.0765      299.98475      7656.8089      2992.8792      10649.688      60848.666      87120        
    425600   425600         2684.7352      301.10387      7630.9035      3004.0444      10634.948      60748.538      87120        
    425700   425700         2685.3956      295.61773      7702.7251      2949.3105      10652.036      60991.655      87120        
    425800   425800         2686.0397      303.16164      7699.1242      3024.5743      10723.699      61023.468      87120        
    425900   425900         2686.6976      305.34274      7726.1552      3046.3347      10772.49       61126.726      87120        
    426000   426000         2687.3576      305.96424      7655.1996      3052.5353      10707.735      60879.392      87120        
    426100   426100         2688.0106      296.16834      7647.6644      2954.8038      10602.468      60793.658      87120        
    426200   426200         2688.6657      295.82538      7670.9897      2951.3822      10622.372      60893.585      87120        
    426300   426300         2689.3228      302.92977      7683.2477      3022.261       10705.509      61003.695      87120        
    426400   426400         2689.9853      305.8179       7721.6933      3051.0752      10772.769      61099.433      87120        
    426500   426500         2690.6418      303.74779      7689.8671      3030.4222      10720.289      60973.572      87120        
    426600   426600         2691.3005      299.56214      7626.1263      2988.663       10614.789      60779.847      87120        
    426700   426700         2691.9643      298.55533      7630.2664      2978.6183      10608.885      60736.539      87120        
    426800   426800         2692.6253      303.00589      7671.4936      3023.0205      10694.514      60922.323      87120        
    426900   426900         2693.284       305.85678      7674.1684      3051.4632      10725.632      60910.749      87120        
    427000   427000         2693.9405      299.76728      7682.7304      2990.7096      10673.44       60956.926      87120        
    427100   427100         2694.5865      299.97312      7668.7885      2992.7631      10661.552      60906.824      87120        
    427200   427200         2695.2384      292.67947      7746.2471      2919.9961      10666.243      61152.935      87120        
    427300   427300         2695.8761      307.42875      7681.315       3067.1464      10748.461      60978.701      87120        
    427400   427400         2696.5263      306.07337      7688.6641      3053.624       10742.288      61019.904      87120        
    427500   427500         2697.175       293.79159      7691.2864      2931.0915      10622.378      60962.52       87120        
    427600   427600         2697.8116      292.53876      7735.6707      2918.5923      10654.263      61127.136      87120        
    427700   427700         2698.4642      308.36644      7656.5132      3076.5014      10733.015      60925.029      87120        
    427800   427800         2699.1126      302.05423      7703.9889      3013.526       10717.515      61084.632      87120        
    427900   427900         2699.7678      298.8571       7719.4953      2981.6289      10701.124      61147.148      87120        
    428000   428000         2700.4214      302.57356      7690.1746      3018.7072      10708.882      61047.96       87120        
    428100   428100         2701.0688      310.70945      7685.7066      3099.8771      10785.584      61005.433      87120        
    428200   428200         2701.7177      302.30036      7731.0958      3015.9815      10747.077      61139.672      87120        
    428300   428300         2702.3687      298.227        7700.0418      2975.3425      10675.384      61026.932      87120        
    428400   428400         2703.012       303.52897      7643.8931      3028.2391      10672.132      60821.855      87120        
    428500   428500         2703.67        294.88416      7723.3217      2941.9919      10665.314      61090.696      87120        
    428600   428600         2704.3316      301.21326      7676.1976      3005.1357      10681.333      60969.477      87120        
    428700   428700         2704.9899      302.47396      7657.4772      3017.7135      10675.191      60867.403      87120        
    428800   428800         2705.6473      299.81041      7680.3778      2991.1399      10671.518      60902.16       87120        
    428900   428900         2706.3036      299.25202      7674.9544      2985.5689      10660.523      60931.002      87120        
    429000   429000         2706.9508      293.62655      7702.5867      2929.4449      10632.032      61024.192      87120        
    429100   429100         2707.6078      301.08013      7685.487       3003.8076      10689.295      60952.745      87120        
    429200   429200         2708.2634      306.07073      7685.2298      3053.5977      10738.827      60997.169      87120        
    429300   429300         2708.9191      298.18213      7705.4533      2974.8949      10680.348      60998.756      87120        
    429400   429400         2709.5667      296.48107      7683.2813      2957.9238      10641.205      60981.885      87120        
    429500   429500         2710.2201      301.06057      7646.5991      3003.6125      10650.212      60812.388      87120        
    429600   429600         2710.8733      297.68871      7690.8411      2969.9721      10660.813      60970.922      87120        
    429700   429700         2711.5227      298.05843      7692.5937      2973.6607      10666.254      60995.644      87120        
    429800   429800         2712.1775      299.00762      7677.305       2983.1306      10660.436      60920.008      87120        
    429900   429900         2712.8494      299.58736      7680.5964      2988.9145      10669.511      60979.07       87120        
    430000   430000         2713.5103      301.33215      7676.488       3006.3219      10682.81       60937.779      87120        
    430100   430100         2714.1789      299.70992      7686.5035      2990.1373      10676.641      60931.047      87120        
    430200   430200         2714.8438      299.09066      7659.3676      2983.9591      10643.327      60879.492      87120        
    430300   430300         2715.5083      300.33892      7617.4657      2996.4127      10613.878      60716.245      87120        
    430400   430400         2716.1892      300.37         7657.8549      2996.7227      10654.578      60792.7        87120        
    430500   430500         2716.8527      305.5878       7685.653       3048.7795      10734.433      60974.579      87120        
    430600   430600         2717.5262      303.45836      7685.4752      3027.5347      10713.01       60965.958      87120        
    430700   430700         2718.1887      300.17253      7664.3519      2994.7527      10659.105      60922.256      87120        
    430800   430800         2718.8542      301.51944      7635.6675      3008.1905      10643.858      60767.373      87120        
    430900   430900         2719.5294      301.77139      7633.7714      3010.7042      10644.476      60744.1        87120        
    431000   431000         2720.1886      301.04845      7622.0612      3003.4915      10625.553      60790.552      87120        
    431100   431100         2720.8526      295.03147      7654.7487      2943.4614      10598.21       60855.942      87120        
    431200   431200         2721.5116      295.76628      7700.4746      2950.7925      10651.267      61013.578      87120        
    431300   431300         2722.1758      301.11473      7719.0358      3004.1528      10723.189      61129.114      87120        
    431400   431400         2722.833       301.91804      7703.0346      3012.1672      10715.202      60993.313      87120        
    431500   431500         2723.4938      299.98071      7684.0753      2992.8389      10676.914      60984.403      87120        
    431600   431600         2724.1598      294.30243      7670.345       2936.1881      10606.533      60912.365      87120        
    431700   431700         2724.8257      300.15423      7647.8394      2994.5701      10642.409      60854.086      87120        
    431800   431800         2725.4838      305.04357      7649.1603      3043.3499      10692.51       60892.661      87120        
    431900   431900         2726.1382      299.43206      7687.9358      2987.3652      10675.301      60929.822      87120        
    432000   432000         2726.8001      299.58453      7695.1685      2988.8863      10684.055      60982.389      87120        
    432100   432100         2727.4437      306.56148      7639.5106      3058.4937      10698.004      60863.383      87120        
    432200   432200         2728.0939      294.21149      7690.0504      2935.2807      10625.331      60936.431      87120        
    432300   432300         2728.7442      300.16351      7635.0805      2994.6626      10629.743      60766.725      87120        
    432400   432400         2729.404       305.21016      7663.3876      3045.012       10708.4        60886.492      87120        
    432500   432500         2730.045       299.77059      7697.4884      2990.7426      10688.231      60957.67       87120        
    432600   432600         2730.7134      298.31743      7690.7165      2976.2447      10666.961      61048.284      87120        
    432700   432700         2731.3628      300.97967      7657.8254      3002.8053      10660.631      60885.684      87120        
    432800   432800         2732.0341      298.64026      7696.474       2979.4656      10675.94       60989.016      87120        
    432900   432900         2732.6927      304.90523      7699.7512      3041.9697      10741.721      61050.402      87120        
    433000   433000         2733.3556      307.84923      7691.5509      3071.3413      10762.892      60958.261      87120        
    433100   433100         2734.0195      301.60649      7662.9011      3009.059       10671.96       60899.294      87120        
    433200   433200         2734.6838      295.92121      7708.7884      2952.3382      10661.127      61036.256      87120        
    433300   433300         2735.3612      302.91392      7684.556       3022.1029      10706.659      60947.227      87120        
    433400   433400         2736.0231      303.68168      7699.9747      3029.7626      10729.737      61065.379      87120        
    433500   433500         2736.6763      309.31134      7697.9915      3085.9284      10783.92       61072.128      87120        
    433600   433600         2737.328       304.51302      7688.376       3038.0568      10726.433      60979.546      87120        
    433700   433700         2737.9772      295.10851      7712.1815      2944.2301      10656.412      61104.907      87120        
    433800   433800         2738.639       297.89918      7691.0125      2972.0719      10663.084      60989.679      87120        
    433900   433900         2739.3037      299.93443      7713.6255      2992.3772      10706.003      61066.102      87120        
    434000   434000         2739.968       300.91266      7735.4462      3002.1367      10737.583      61171.409      87120        
    434100   434100         2740.6097      299.76768      7723.3643      2990.7135      10714.078      61046.172      87120        
    434200   434200         2741.2582      294.17035      7687.7775      2934.8703      10622.648      61025.959      87120        
    434300   434300         2741.9089      294.96374      7691.0142      2942.7857      10633.8        61011.682      87120        
    434400   434400         2742.5592      302.32207      7687.447       3016.1981      10703.645      60963.915      87120        
    434500   434500         2743.1959      300.47429      7729.254       2997.7633      10727.017      61147.641      87120        
    434600   434600         2743.8492      300.7707       7706.4422      3000.7205      10707.163      61005.563      87120        
    434700   434700         2744.5045      298.11315      7698.9605      2974.2067      10673.167      61029.567      87120        
    434800   434800         2745.1655      296.13717      7731.8976      2954.4928      10686.39       61143.099      87120        
    434900   434900         2745.8272      303.35026      7700.841       3026.4561      10727.297      61013.299      87120        
    435000   435000         2746.489       300.50728      7705.8055      2998.0924      10703.898      61069.788      87120        
    435100   435100         2747.1442      302.29024      7673.5324      3015.8805      10689.413      60943.652      87120        
    435200   435200         2747.8098      300.17391      7689.3923      2994.7665      10684.159      60931.577      87120        
    435300   435300         2748.469       299.83043      7671.1702      2991.3396      10662.51       60971.634      87120        
    435400   435400         2749.13        297.01123      7703.4648      2963.2131      10666.678      61059.628      87120        
    435500   435500         2749.7883      305.26496      7718.6269      3045.5586      10764.186      61159.439      87120        
    435600   435600         2750.4594      308.11958      7667.5785      3074.0386      10741.617      60954.75       87120        
    435700   435700         2751.1144      298.69364      7678.3336      2979.9981      10658.332      60878.829      87120        
    435800   435800         2751.7674      299.48559      7672.7784      2987.8992      10660.678      60946.035      87120        
    435900   435900         2752.4215      298.23928      7707.2608      2975.465       10682.726      61040.443      87120        
    436000   436000         2753.0643      299.43559      7689.4319      2987.4004      10676.832      60993.063      87120        
    436100   436100         2753.7113      298.02075      7668.1492      2973.2849      10641.434      60948.999      87120        
    436200   436200         2754.3559      294.85817      7694.216       2941.7325      10635.949      60991.168      87120        
    436300   436300         2755.0119      302.25081      7701.451       3015.4872      10716.938      61082.781      87120        
    436400   436400         2755.6589      302.67232      7720.7862      3019.6925      10740.479      61190.279      87120        
    436500   436500         2756.3231      300.29423      7673.8652      2995.9668      10669.832      60897.221      87120        
    436600   436600         2756.9898      288.34092      7708.1365      2876.7114      10584.848      61029.339      87120        
    436700   436700         2757.6452      296.7716       7688.3052      2960.8223      10649.128      60933.735      87120        
    436800   436800         2758.3089      304.93515      7670.93        3042.2682      10713.198      60904.36       87120        
    436900   436900         2758.9763      305.07635      7690.8803      3043.677       10734.557      61008.697      87120        
    437000   437000         2759.6484      298.0633       7680.9913      2973.7094      10654.701      60953.393      87120        
    437100   437100         2760.3122      293.78814      7685.8375      2931.0571      10616.895      60977.644      87120        
    437200   437200         2760.9791      297.96443      7641.4156      2972.723       10614.139      60797.618      87120        
    437300   437300         2761.6389      303.964        7618.6386      3032.5793      10651.218      60747.405      87120        
    437400   437400         2762.2943      304.39238      7675.6092      3036.8531      10712.462      60997.426      87120        
    437500   437500         2762.9515      308.65233      7730.9018      3079.3537      10810.255      61177.78       87120        
    437600   437600         2763.6035      301.73557      7727.8327      3010.3467      10738.179      61166.687      87120        
    437700   437700         2764.2417      300.04349      7621.3689      2993.4652      10614.834      60702.821      87120        
    437800   437800         2764.8909      295.35394      7630.7766      2946.6787      10577.455      60628.254      87120        
    437900   437900         2765.5431      303.26332      7601.9096      3025.5887      10627.498      60642.972      87120        
    438000   438000         2766.1973      308.24257      7624.731       3075.2657      10699.997      60750.169      87120        
    438100   438100         2766.8433      302.66566      7693.9235      3019.6261      10713.55       61008.63       87120        
    438200   438200         2767.489       297.79776      7651.0332      2971.0602      10622.093      60864.406      87120        
    438300   438300         2768.1407      300.14138      7581.6529      2994.4419      10576.095      60578.967      87120        
    438400   438400         2768.7999      302.97068      7639.182       3022.6692      10661.851      60818.853      87120        
    438500   438500         2769.456       303.27953      7717.7331      3025.7505      10743.484      61103.462      87120        
    438600   438600         2770.1291      307.71948      7656.7619      3070.0469      10726.809      60911.436      87120        
    438700   438700         2770.7928      301.21018      7657.1664      3005.1051      10662.271      60868.591      87120        
    438800   438800         2771.4581      293.56017      7714.8012      2928.7827      10643.584      60974.319      87120        
    438900   438900         2772.1289      305.58549      7653.0153      3048.7565      10701.772      60789.319      87120        
    439000   439000         2772.7894      301.73693      7707.7929      3010.3604      10718.153      61035.68       87120        
    439100   439100         2773.4301      297.345        7681.5429      2966.5431      10648.086      60931.909      87120        
    439200   439200         2774.07        292.90852      7672.4673      2922.2813      10594.749      60937.499      87120        
    439300   439300         2774.7278      295.34541      7715.2427      2946.5936      10661.836      61067.436      87120        
    439400   439400         2775.3785      303.14861      7686.2081      3024.4443      10710.652      60916.764      87120        
    439500   439500         2776.0282      298.91148      7724.3621      2982.1714      10706.534      61106.482      87120        
    439600   439600         2776.6894      298.23475      7711.27        2975.4199      10686.69       61011.064      87120        
    439700   439700         2777.358       287.84578      7734.6176      2871.7715      10606.389      61049.475      87120        
    439800   439800         2778.0199      297.58523      7664.4323      2968.9398      10633.372      60900.781      87120        
    439900   439900         2778.6829      302.34714      7709.6555      3016.4483      10726.104      60994.555      87120        
    440000   440000         2779.3421      301.70855      7715.8618      3010.0771      10725.939      61056.076      87120        
    440100   440100         2780.0052      299.34403      7694.1129      2986.4869      10680.6        61034.401      87120        
    440200   440200         2780.6618      298.83001      7684.6769      2981.3587      10666.036      60944.594      87120        
    440300   440300         2781.3183      311.18198      7596.4615      3104.5915      10701.053      60703.551      87120        
    440400   440400         2781.9848      293.02969      7726.2177      2923.4902      10649.708      61072.639      87120        
    440500   440500         2782.6417      289.97383      7737.3019      2893.0026      10630.304      61105.618      87120        
    440600   440600         2783.3024      301.59279      7699.6743      3008.9222      10708.597      61028.03       87120        
    440700   440700         2783.9538      304.23225      7677.5519      3035.2556      10712.807      60919.736      87120        
    440800   440800         2784.5994      297.33492      7714.4573      2966.4424      10680.9        61059.716      87120        
    440900   440900         2785.2563      300.0604       7664.0147      2993.634       10657.649      60920.48       87120        
    441000   441000         2785.9098      292.84384      7688.5696      2921.636       10610.206      60925.326      87120        
    441100   441100         2786.5584      299.20057      7645.639       2985.0556      10630.695      60752.296      87120        
    441200   441200         2787.2083      301.15502      7704.4828      3004.5547      10709.038      61010.58       87120        
    441300   441300         2787.8602      304.7523       7694.4516      3040.444       10734.896      61026.699      87120        
    441400   441400         2788.5147      298.73415      7682.7432      2980.4023      10663.145      61017.62       87120        
    441500   441500         2789.1657      294.18993      7670.2298      2935.0656      10605.295      60819.128      87120        
    441600   441600         2789.8202      294.53828      7703.9126      2938.5411      10642.454      61020.914      87120        
    441700   441700         2790.4684      299.53716      7698.5455      2988.4137      10686.959      60985.04       87120        
    441800   441800         2791.1323      302.92457      7684.7553      3022.2091      10706.964      60962.618      87120        
    441900   441900         2791.7919      301.17836      7662.6423      3004.7876      10667.43       60866.171      87120        
    442000   442000         2792.4462      297.36216      7619.723       2966.7143      10586.437      60703.435      87120        
    442100   442100         2793.0876      294.0487       7679.7507      2933.6566      10613.407      60988.929      87120        
    442200   442200         2793.7345      300.07546      7680.8043      2993.7842      10674.588      61018.973      87120        
    442300   442300         2794.3774      302.50987      7684.7546      3018.0718      10702.826      60949.404      87120        
    442400   442400         2795.0409      300.43798      7694.7255      2997.401       10692.126      60979.901      87120        
    442500   442500         2795.6951      299.70533      7651.0074      2990.0915      10641.099      60853.859      87120        
    442600   442600         2796.3489      292.54551      7664.9169      2918.6596      10583.577      60861.069      87120        
    442700   442700         2796.9991      298.23644      7667.048       2975.4367      10642.485      60854.549      87120        
    442800   442800         2797.6536      302.89484      7675.4422      3021.9125      10697.355      60878.864      87120        
    442900   442900         2798.3133      301.42856      7668.7427      3007.2838      10676.026      60895.854      87120        
    443000   443000         2798.9718      296.97992      7699.5569      2962.9007      10662.458      60970.603      87120        
    443100   443100         2799.635       296.52533      7731.7047      2958.3654      10690.07       61036.98       87120        
    443200   443200         2800.2901      309.88328      7695.6315      3091.6346      10787.266      61010.702      87120        
    443300   443300         2800.9492      309.25115      7691.2482      3085.328       10776.576      61045.04       87120        
    443400   443400         2801.6213      296.68675      7693.7092      2959.9759      10653.685      60934.974      87120        
    443500   443500         2802.284       298.98007      7661.9543      2982.8558      10644.81       60822.569      87120        
    443600   443600         2802.9495      302.0761       7660.6937      3013.7441      10674.438      60866.324      87120        
    443700   443700         2803.6133      300.12769      7714.6734      2994.3053      10708.979      61114.378      87120        
    443800   443800         2804.272       307.37871      7701.755       3066.6471      10768.402      61110.074      87120        
    443900   443900         2804.9235      302.3085       7711.3592      3016.0628      10727.422      61024.785      87120        
    444000   444000         2805.5741      294.7489       7686.7362      2940.6423      10627.379      60965.587      87120        
    444100   444100         2806.2168      299.45479      7654.7972      2987.5919      10642.389      60897.072      87120        
    444200   444200         2806.8488      303.36512      7718.9923      3026.6044      10745.597      61057.667      87120        
    444300   444300         2807.4901      309.64074      7706.0193      3089.2148      10795.234      61122.678      87120        
    444400   444400         2808.1338      294.90105      7724.1001      2942.1603      10666.26       61186.674      87120        
    444500   444500         2808.7681      295.23641      7712.5449      2945.5061      10658.051      61123.126      87120        
    444600   444600         2809.4283      304.74241      7679.6932      3040.3453      10720.039      60975.01       87120        
    444700   444700         2810.0695      304.66049      7695.9109      3039.528       10735.439      61015.356      87120        
    444800   444800         2810.7338      303.77775      7686.4417      3030.7211      10717.163      60987.312      87120        
    444900   444900         2811.3943      297.25038      7682.7423      2965.5991      10648.341      60978.359      87120        
    445000   445000         2812.0492      295.20091      7657.7149      2945.152       10602.867      60885.046      87120        
    445100   445100         2812.7106      301.8496       7663.8709      3011.4844      10675.355      60920.653      87120        
    445200   445200         2813.3698      305.13391      7661.4945      3044.2512      10705.746      60881.932      87120        
    445300   445300         2814.0271      301.42197      7657.6678      3007.218       10664.886      60816.644      87120        
    445400   445400         2814.6893      295.55399      7690.128       2948.6746      10638.803      60974.626      87120        
    445500   445500         2815.344       300.64812      7650.2646      2999.4975      10649.762      60785.791      87120        
    445600   445600         2816.0078      302.80486      7687.4932      3021.0148      10708.508      60942.118      87120        
    445700   445700         2816.6698      309.22443      7653.8157      3085.0614      10738.877      60866.825      87120        
    445800   445800         2817.3396      296.18334      7688.8613      2954.9534      10643.815      60916.115      87120        
    445900   445900         2817.9866      297.05306      7675.5474      2963.6304      10639.178      60952.871      87120        
    446000   446000         2818.6418      301.8518       7654.9108      3011.5064      10666.417      60884.912      87120        
    446100   446100         2819.2835      299.19951      7712.3359      2985.0451      10697.381      61041.534      87120        
    446200   446200         2819.9312      300.3433       7725.6045      2996.4564      10722.061      61168.578      87120        
    446300   446300         2820.5821      304.29562      7715.9284      3035.8877      10751.816      61042.252      87120        
    446400   446400         2821.25        301.89283      7676.6624      3011.9157      10688.578      60957.323      87120        
    446500   446500         2821.9082      293.93941      7704.7948      2932.5662      10637.361      61085.566      87120        
    446600   446600         2822.5661      298.20502      7682.5165      2975.1233      10657.64       60918.144      87120        
    446700   446700         2823.2232      306.77903      7637.0717      3060.6642      10697.736      60813.107      87120        
    446800   446800         2823.8798      304.70322      7648.6639      3039.9544      10688.618      60866.004      87120        
    446900   446900         2824.5336      294.82708      7662.874       2941.4223      10604.296      60854.858      87120        
    447000   447000         2825.1941      294.35883      7701.8566      2936.7507      10638.607      61086.827      87120        
    447100   447100         2825.847       303.13263      7685.4998      3024.2849      10709.785      61019.7        87120        
    447200   447200         2826.5143      305.38178      7666.9392      3046.7242      10713.663      60889.333      87120        
    447300   447300         2827.1725      298.35297      7696.1715      2976.5993      10672.771      61014.85       87120        
    447400   447400         2827.8453      292.75757      7721.1255      2920.7753      10641.901      61054.282      87120        
    447500   447500         2828.5117      294.80312      7722.4596      2941.1833      10663.643      61143.242      87120        
    447600   447600         2829.1933      305.69676      7707.5332      3049.8667      10757.4        61061.595      87120        
    447700   447700         2829.8575      301.91191      7700.0534      3012.1061      10712.159      60983.761      87120        
    447800   447800         2830.5284      299.89975      7664.3499      2992.0312      10656.381      60959.99       87120        
    447900   447900         2831.1967      295.70121      7707.7841      2950.1434      10657.927      61058.943      87120        
    448000   448000         2831.8601      305.7359       7698.5578      3050.2572      10748.815      61038.545      87120        
    448100   448100         2832.5055      306.1507       7716.6128      3054.3955      10771.008      61131.176      87120        
    448200   448200         2833.1577      300.90341      7715.7695      3002.0445      10717.814      61058.008      87120        
    448300   448300         2833.8089      300.51259      7700.9649      2998.1454      10699.11       61055.84       87120        
    448400   448400         2834.4514      300.08357      7699.3754      2993.8651      10693.241      61105.797      87120        
    448500   448500         2835.1037      302.39881      7693.9111      3016.9638      10710.875      60987.378      87120        
    448600   448600         2835.7412      305.04063      7700.9977      3043.3205      10744.318      61060.203      87120        
    448700   448700         2836.3919      301.54945      7702.3958      3008.4899      10710.886      61042.131      87120        
    448800   448800         2837.0336      296.74878      7668.4949      2960.5947      10629.09       60898.257      87120        
    448900   448900         2837.6886      296.84174      7670.3993      2961.5221      10631.921      60964.031      87120        
    449000   449000         2838.3324      300.14554      7719.6811      2994.4834      10714.165      61144.646      87120        
    449100   449100         2838.9787      301.50574      7753.3843      3008.0538      10761.438      61192.234      87120        
    449200   449200         2839.6301      307.30376      7657.5684      3065.8993      10723.468      60911.696      87120        
    449300   449300         2840.2909      296.09705      7695.7317      2954.0925      10649.824      60994.071      87120        
    449400   449400         2840.9457      293.76162      7714.1857      2930.7925      10644.978      61074.015      87120        
    449500   449500         2841.5942      304.20203      7669.8431      3034.9541      10704.797      60961.565      87120        
    449600   449600         2842.2548      301.91961      7682.9292      3012.1829      10695.112      60914.34       87120        
    449700   449700         2842.9097      291.88129      7688.2986      2912.0329      10600.331      61003.711      87120        
    449800   449800         2843.5554      286.15006      7685.0094      2854.8537      10539.863      60892.487      87120        
    449900   449900         2844.2139      295.17835      7680.0294      2944.9269      10624.956      60912.077      87120        
    450000   450000         2844.8715      309.00712      7580.2536      3082.8934      10663.147      60677.195      87120        
    450100   450100         2845.5284      298.45025      7664.5902      2977.5699      10642.16       60845.071      87120        
    450200   450200         2846.1731      306.27947      7606.1287      3055.6802      10661.809      60727.333      87120        
    450300   450300         2846.8312      291.61409      7715.0486      2909.3671      10624.416      61115.877      87120        
    450400   450400         2847.4902      291.59154      7691.1191      2909.1421      10600.261      60941.699      87120        
    450500   450500         2848.1513      298.63115      7691.0501      2979.3747      10670.425      60995.77       87120        
    450600   450600         2848.8042      309.36726      7623.0097      3086.4864      10709.496      60759.875      87120        
    450700   450700         2849.4594      301.86842      7654.5175      3011.6722      10666.19       60866.194      87120        
    450800   450800         2850.1106      298.23684      7662.3439      2975.4408      10637.785      60969.21       87120        
    450900   450900         2850.7607      293.2295       7688.4476      2925.4836      10613.931      60984.821      87120        
    451000   451000         2851.4183      299.74219      7636.2845      2990.4593      10626.744      60776.205      87120        
    451100   451100         2852.071       307.42493      7632.1572      3067.1082      10699.265      60839.946      87120        
    451200   451200         2852.7129      306.50527      7701.6811      3057.933       10759.614      61045.409      87120        
    451300   451300         2853.3697      295.253        7743.0377      2945.6717      10688.709      61216.448      87120        
    451400   451400         2854.0238      295.77074      7685.6545      2950.837       10636.491      61030.33       87120        
    451500   451500         2854.6638      298.05406      7682.7666      2973.6171      10656.384      60906.235      87120        
    451600   451600         2855.3195      299.16013      7729.5658      2984.6521      10714.218      61208.85       87120        
    451700   451700         2855.9731      308.48495      7691.5183      3077.6838      10769.202      61003.311      87120        
    451800   451800         2856.6223      300.00849      7667.7762      2993.1161      10660.892      60920.087      87120        
    451900   451900         2857.2806      292.76232      7712.6526      2920.8227      10633.475      61106.098      87120        
    452000   452000         2857.9266      304.93407      7637.2476      3042.2574      10679.505      60777.95       87120        
    452100   452100         2858.5766      300.7884       7703.4626      3000.897       10704.36       61060.303      87120        
    452200   452200         2859.2307      302.93935      7672.9398      3022.3566      10695.296      61004.84       87120        
    452300   452300         2859.8884      294.43733      7690.4456      2937.5339      10627.979      60975.964      87120        
    452400   452400         2860.5428      293.03044      7693.4117      2923.4976      10616.909      61057.528      87120        
    452500   452500         2861.1996      300.8119       7673.7488      3001.1315      10674.88       60941.956      87120        
    452600   452600         2861.8568      300.29128      7684.8443      2995.9374      10680.782      60902.28       87120        
    452700   452700         2862.5056      301.83973      7647.5534      3011.3859      10658.939      60878.512      87120        
    452800   452800         2863.1674      293.83496      7695.7527      2931.5241      10627.277      60958.754      87120        
    452900   452900         2863.8274      297.61746      7715.1624      2969.2613      10684.424      61100.294      87120        
    453000   453000         2864.48        307.32075      7684.9164      3066.0688      10750.985      61062.359      87120        
    453100   453100         2865.1271      301.536        7700.0603      3008.3556      10708.416      61000.914      87120        
    453200   453200         2865.7777      302.78766      7658.2595      3020.8433      10679.103      60938.501      87120        
    453300   453300         2866.4264      299.0907       7706.6514      2983.9595      10690.611      61110.327      87120        
    453400   453400         2867.0765      300.3704       7724.7616      2996.7267      10721.488      61164.853      87120        
    453500   453500         2867.7214      299.25059      7734.9211      2985.5546      10720.476      61228.125      87120        
    453600   453600         2868.3681      300.70046      7709.2542      3000.0197      10709.274      61041.45       87120        
    453700   453700         2869.0144      299.8763       7677.0117      2991.7972      10668.809      60932.381      87120        
    453800   453800         2869.6599      295.32069      7684.0671      2946.347       10630.414      61016.608      87120        
    453900   453900         2870.2927      300.91349      7676.1795      3002.145       10678.325      60941.292      87120        
    454000   454000         2870.9431      307.95329      7714.2355      3072.3795      10786.615      61100.024      87120        
    454100   454100         2871.5872      304.01942      7699.1595      3033.1322      10732.292      61057.278      87120        
    454200   454200         2872.222       299.40264      7658.1432      2987.0717      10645.215      60801.787      87120        
    454300   454300         2872.8717      295.39973      7697.1772      2947.1355      10644.313      60999.646      87120        
    454400   454400         2873.5127      304.42399      7658.2546      3037.1685      10695.423      60937.623      87120        
    454500   454500         2874.1636      302.84311      7682.1722      3021.3964      10703.569      60964.813      87120        
    454600   454600         2874.8226      300.16656      7665.1534      2994.6931      10659.846      60930.342      87120        
    454700   454700         2875.4715      294.11256      7668.5341      2934.2937      10602.828      60907.45       87120        
    454800   454800         2876.1267      302.64931      7651.2264      3019.4629      10670.689      60784.41       87120        
    454900   454900         2876.7849      309.19778      7673.7508      3084.7955      10758.546      60978.432      87120        
    455000   455000         2877.4473      297.38332      7756.6272      2966.9254      10723.553      61197.672      87120        
    455100   455100         2878.0999      300.99169      7661.1072      3002.9253      10664.032      60865.198      87120        
    455200   455200         2878.7442      295.48305      7683.544       2947.9668      10631.511      60983.561      87120        
    455300   455300         2879.395       301.95072      7658.6348      3012.4933      10671.128      60900.128      87120        
    455400   455400         2880.0441      299.79603      7695.0204      2990.9964      10686.017      61079.617      87120        
    455500   455500         2880.6799      294.30525      7674.6826      2936.2162      10610.899      60957.27       87120        
    455600   455600         2881.3266      291.43975      7661.0757      2907.6277      10568.703      60850.038      87120        
    455700   455700         2881.9769      305.20527      7628.7261      3044.9631      10673.689      60811.533      87120        
    455800   455800         2882.6152      303.04073      7688.3214      3023.368       10711.689      60931.885      87120        
    455900   455900         2883.2676      303.74542      7643.1952      3030.3986      10673.594      60838.851      87120        
    456000   456000         2883.9227      294.55632      7689.149       2938.721       10627.87       60972.877      87120        
    456100   456100         2884.5632      304.20606      7649.8637      3034.9942      10684.858      60826.904      87120        
    456200   456200         2885.2152      306.72315      7710.3334      3060.1067      10770.44       61082.385      87120        
    456300   456300         2885.8738      299.5115       7740.762       2988.1578      10728.92       61200.953      87120        
    456400   456400         2886.5305      302.00271      7691.2777      3013.012       10704.29       61034.557      87120        
    456500   456500         2887.1848      296.39486      7727.8756      2957.0637      10684.939      61107.535      87120        
    456600   456600         2887.8285      303.39447      7653.1836      3026.8972      10680.081      60889.282      87120        
    456700   456700         2888.4867      295.14064      7637.9345      2944.5506      10582.485      60765.517      87120        
    456800   456800         2889.1326      291.38103      7679.5497      2907.0418      10586.592      60917.943      87120        
    456900   456900         2889.8002      299.64729      7694.3388      2989.5124      10683.851      61058.265      87120        
    457000   457000         2890.4733      298.61468      7714.51        2979.2103      10693.72       61056.989      87120        
    457100   457100         2891.1323      302.23809      7689.8201      3015.3603      10705.18       61020.968      87120        
    457200   457200         2891.7862      303.8107       7671.5852      3031.0498      10702.635      60975.613      87120        
    457300   457300         2892.4414      293.30283      7705.8467      2926.2153      10632.062      61090.196      87120        
    457400   457400         2893.0914      293.08191      7746.6984      2924.0111      10670.71       61236.77       87120        
    457500   457500         2893.7473      299.73532      7740.1875      2990.3908      10730.578      61191.87       87120        
    457600   457600         2894.4059      300.61684      7710.9788      2999.1855      10710.164      61064.274      87120        
    457700   457700         2895.0594      301.29714      7672.7332      3005.9726      10678.706      60973.198      87120        
    457800   457800         2895.7201      293.91492      7722.4928      2932.3219      10654.815      61115.353      87120        
    457900   457900         2896.3923      297.54248      7725.1516      2968.5133      10693.665      61166.595      87120        
    458000   458000         2897.0518      312.59779      7667.3097      3118.7166      10786.026      61006.649      87120        
    458100   458100         2897.7146      295.72509      7763.1858      2950.3816      10713.567      61232.292      87120        
    458200   458200         2898.3653      289.85061      7782.1054      2891.7733      10673.879      61309.455      87120        
    458300   458300         2899.0366      298.38452      7739.3487      2976.9141      10716.263      61188.781      87120        
    458400   458400         2899.7029      309.87362      7710.2624      3091.5382      10801.801      61097.701      87120        
    458500   458500         2900.3686      301.91695      7737.2835      3012.1563      10749.44       61223.452      87120        
    458600   458600         2901.0413      300.87002      7659.8123      3001.7113      10661.524      60909.122      87120        
    458700   458700         2901.6976      296.96072      7681.3198      2962.7091      10644.029      60967.924      87120        
    458800   458800         2902.3545      299.80974      7717.8115      2991.1332      10708.945      61099.016      87120        
    458900   458900         2903.0146      308.01743      7704.3676      3073.0194      10777.387      61129.027      87120        
    459000   459000         2903.6872      299.70695      7698.0623      2990.1076      10688.17       61112.897      87120        
    459100   459100         2904.3404      293.94899      7704.2069      2932.6618      10636.869      61051.14       87120        
    459200   459200         2904.9956      304.13505      7656.3842      3034.2858      10690.67       60926.227      87120        
    459300   459300         2905.6479      302.86272      7690.0164      3021.5921      10711.609      61013.526      87120        
    459400   459400         2906.3052      297.56357      7704.3258      2968.7237      10673.049      61040.474      87120        
    459500   459500         2906.958       292.68083      7685.5386      2920.0097      10605.548      60984.699      87120        
    459600   459600         2907.6134      297.40877      7683.6565      2967.1793      10650.836      60957.758      87120        
    459700   459700         2908.2533      304.99855      7700.1457      3042.9007      10743.046      61032.106      87120        
    459800   459800         2908.9019      304.62538      7669.208       3039.1778      10708.386      60965.224      87120        
    459900   459900         2909.5539      293.40571      7720.5361      2927.2416      10647.778      61054.204      87120        
    460000   460000         2910.2088      298.08527      7705.8218      2973.9285      10679.75       61068.053      87120        
    460100   460100         2910.8538      310.65755      7677.9025      3099.3593      10777.262      61032.051      87120        
    460200   460200         2911.5161      306.32014      7712.2312      3056.086       10768.317      61075.737      87120        
    460300   460300         2912.1885      300.04594      7726.7042      2993.4897      10720.194      61175.413      87120        
    460400   460400         2912.8599      299.47055      7691.2093      2987.7491      10678.958      60981.888      87120        
    460500   460500         2913.5248      303.81209      7652.5124      3031.0637      10683.576      60891.564      87120        
    460600   460600         2914.1844      297.17573      7706.0542      2964.8542      10670.908      61130.618      87120        
    460700   460700         2914.8315      292.06361      7754.4774      2913.8519      10668.329      61133.977      87120        
    460800   460800         2915.5022      301.7109       7738.4333      3010.1006      10748.534      61202.722      87120        
    460900   460900         2916.1514      302.3056       7704.7832      3016.0338      10720.817      61051.051      87120        
    461000   461000         2916.8095      298.27115      7679.5323      2975.7831      10655.315      60803.386      87120        
    461100   461100         2917.4506      298.27364      7690.8997      2975.8079      10666.708      61029.115      87120        
    461200   461200         2918.1081      296.20797      7749.2663      2955.1992      10704.465      61189.093      87120        
    461300   461300         2918.7603      302.58635      7712.393       3018.8347      10731.228      61055.727      87120        
    461400   461400         2919.4223      301.62364      7678.245       3009.2301      10687.475      60963.492      87120        
    461500   461500         2920.0779      297.19591      7682.2148      2965.0556      10647.27       60856.434      87120        
    461600   461600         2920.7341      296.16989      7713.4232      2954.8192      10668.242      61055.281      87120        
    461700   461700         2921.3819      301.58937      7768.4944      3008.8882      10777.383      61309.967      87120        
    461800   461800         2922.0362      305.27876      7767.2797      3045.6963      10812.976      61250.391      87120        
    461900   461900         2922.6874      300.93631      7715.213       3002.3727      10717.586      61103.001      87120        
    462000   462000         2923.329       299.70417      7680.1114      2990.08        10670.191      60893.761      87120        
    462100   462100         2923.9709      299.35266      7691.1242      2986.573       10677.697      60929.867      87120        
    462200   462200         2924.6119      301.6053       7687.9854      3009.0471      10697.032      61021.675      87120        
    462300   462300         2925.258       293.69756      7729.5451      2930.1534      10659.699      61040.099      87120        
    462400   462400         2925.9071      295.91693      7668.9662      2952.2955      10621.262      60934.193      87120        
    462500   462500         2926.5551      299.14001      7699.9242      2984.4514      10684.376      61028.858      87120        
    462600   462600         2927.2054      302.55296      7694.8773      3018.5017      10713.379      60888.577      87120        
    462700   462700         2927.8501      304.5361       7664.7296      3038.287       10703.017      60924.952      87120        
    462800   462800         2928.5123      302.30714      7653.8676      3016.0492      10669.917      60870.682      87120        
    462900   462900         2929.1817      292.75838      7719.1769      2920.7834      10639.96       61095.052      87120        
    463000   463000         2929.8431      298.76841      7670.4733      2980.7441      10651.217      60976.353      87120        
    463100   463100         2930.4853      299.88112      7652.3473      2991.8453      10644.193      60787.39       87120        
    463200   463200         2931.1401      302.31788      7660.3967      3016.1563      10676.553      60861.051      87120        
    463300   463300         2931.8033      302.87437      7682.3626      3021.7083      10704.071      60964.058      87120        
    463400   463400         2932.4625      292.56669      7720.4553      2918.871       10639.326      61024.198      87120        
    463500   463500         2933.1258      299.62894      7652.8527      2989.3294      10642.182      60901.1        87120        
    463600   463600         2933.7939      302.03389      7664.5739      3013.3231      10677.897      60864.643      87120        
    463700   463700         2934.4582      306.2191       7688.4257      3055.0779      10743.504      60938.676      87120        
    463800   463800         2935.1123      310.01604      7703.5963      3092.9591      10796.555      61073.066      87120        
    463900   463900         2935.7565      301.58033      7691.5766      3008.798       10700.375      60997.001      87120        
    464000   464000         2936.4183      297.7736       7709.8849      2970.819       10680.704      61071.979      87120        
    464100   464100         2937.0469      299.33737      7699.8477      2986.4205      10686.268      61045.236      87120        
    464200   464200         2937.6991      304.87555      7626.2239      3041.6736      10667.898      60756.636      87120        
    464300   464300         2938.3435      296.38715      7633.4323      2956.9868      10590.419      60778.644      87120        
    464400   464400         2938.9837      292.90909      7669.6615      2922.287       10591.948      60898.822      87120        
    464500   464500         2939.6383      300.59729      7706.827       2998.9904      10705.817      60980.205      87120        
    464600   464600         2940.2983      299.93178      7720.3693      2992.3507      10712.72       61057.327      87120        
    464700   464700         2940.9597      303.32138      7687.8928      3026.1681      10714.061      60963.861      87120        
    464800   464800         2941.6249      299.70662      7649.1392      2990.1044      10639.244      60795.146      87120        
    464900   464900         2942.2958      298.89833      7605.7802      2982.0403      10587.82       60701.441      87120        
    465000   465000         2942.9599      296.94718      7676.6623      2962.574       10639.236      60907.05       87120        
    465100   465100         2943.6239      301.4687       7675.8965      3007.6842      10683.581      60928.465      87120        
    465200   465200         2944.3015      301.5446       7668.4725      3008.4415      10676.914      60940.536      87120        
    465300   465300         2944.9686      298.49619      7679.4938      2978.0282      10657.522      60871.036      87120        
    465400   465400         2945.6395      294.76146      7700.2333      2940.7677      10641.001      61017.247      87120        
    465500   465500         2946.311       301.56135      7678.6846      3008.6086      10687.293      60958.994      87120        
    465600   465600         2946.984       305.39636      7706.3387      3046.8696      10753.208      61107.669      87120        
    465700   465700         2947.6462      302.25258      7712.0353      3015.5048      10727.54       61123.156      87120        
    465800   465800         2948.3036      291.73612      7729.9867      2910.5845      10640.571      61093.966      87120        
    465900   465900         2948.9534      297.72809      7698.1152      2970.3651      10668.48       61052.365      87120        
    466000   466000         2949.5999      304.44184      7758.5157      3037.3466      10795.862      61307.427      87120        
    466100   466100         2950.2484      306.74725      7754.3301      3060.3472      10814.677      61276.667      87120        
    466200   466200         2950.8947      304.63674      7721.2052      3039.2911      10760.496      61191.782      87120        
    466300   466300         2951.5404      300.21681      7703.4839      2995.1945      10698.678      61030.232      87120        
    466400   466400         2952.1912      298.32536      7693.6467      2976.3239      10669.971      60952.874      87120        
    466500   466500         2952.8432      302.11911      7701.9391      3014.1732      10716.112      61078.178      87120        
    466600   466600         2953.4997      303.42976      7751.3631      3027.2493      10778.612      61281.155      87120        
    466700   466700         2954.1558      299.14439      7768.1921      2984.4951      10752.687      61309.478      87120        
    466800   466800         2954.808       298.27106      7691.8741      2975.7821      10667.656      61048.243      87120        
    466900   466900         2955.4605      289.37475      7747.0892      2887.0257      10634.115      61208.754      87120        
    467000   467000         2956.1147      306.49511      7694.4748      3057.8316      10752.306      61043.15       87120        
    467100   467100         2956.7677      303.03466      7733.2951      3023.3075      10756.603      61217.446      87120        
    467200   467200         2957.4138      299.66536      7742.7979      2989.6928      10732.491      61242.236      87120        
    467300   467300         2958.0676      299.15346      7730.5123      2984.5856      10715.098      61178.954      87120        
    467400   467400         2958.722       304.34873      7709.8132      3036.4176      10746.231      61089.429      87120        
    467500   467500         2959.3828      305.55581      7733.2218      3048.4604      10781.682      61130.189      87120        
    467600   467600         2960.0432      299.22825      7745.9115      2985.3318      10731.243      61243.98       87120        
    467700   467700         2960.6928      299.12595      7708.7594      2984.3112      10693.071      61062.695      87120        
    467800   467800         2961.3458      297.91365      7693.8982      2972.2164      10666.115      61012.251      87120        
    467900   467900         2962.0069      298.20977      7697.0395      2975.1707      10672.21       61066.192      87120        
    468000   468000         2962.6738      307.50658      7708.319       3067.9228      10776.242      60982.29       87120        
    468100   468100         2963.3262      302.9451       7716.1095      3022.4139      10738.523      61080.685      87120        
    468200   468200         2963.9786      300.91501      7683.5732      3002.1602      10685.733      61001.471      87120        
    468300   468300         2964.6189      295.85064      7712.5705      2951.6342      10664.205      61010.857      87120        
    468400   468400         2965.2735      303.41449      7651.4098      3027.097       10678.507      60921.852      87120        
    468500   468500         2965.9329      297.44925      7689.6365      2967.5831      10657.22       60968.433      87120        
    468600   468600         2966.5822      296.40552      7701.8995      2957.1701      10659.07       60936.307      87120        
    468700   468700         2967.2432      305.55476      7666.541       3048.4499      10714.991      60911.96       87120        
    468800   468800         2967.9083      299.20477      7719.2907      2985.0975      10704.388      61007.384      87120        
    468900   468900         2968.5706      290.26736      7747.4606      2895.931       10643.392      61160.881      87120        
    469000   469000         2969.2228      297.81143      7697.8448      2971.1965      10669.041      61054.367      87120        
    469100   469100         2969.8744      305.98156      7705.2627      3052.7081      10757.971      60986.766      87120        
    469200   469200         2970.5418      301.38788      7708.9477      3006.8779      10715.826      61092.717      87120        
    469300   469300         2971.21        296.19005      7726.3424      2955.0204      10681.363      61160.64       87120        
    469400   469400         2971.8744      305.91446      7643.5398      3052.0386      10695.578      60829.343      87120        
    469500   469500         2972.5375      302.37631      7662.3254      3016.7393      10679.065      60933.715      87120        
    469600   469600         2973.1979      299.33873      7667.7616      2986.4341      10654.196      60850.058      87120        
    469700   469700         2973.8679      294.02291      7709.6754      2933.3993      10643.075      60992.516      87120        
    469800   469800         2974.5253      302.87981      7657.3678      3021.7626      10679.13       60930.923      87120        
    469900   469900         2975.1999      291.75973      7782.2276      2910.82        10693.048      61279.866      87120        
    470000   470000         2975.8696      304.95568      7718.3427      3042.4731      10760.816      61107.643      87120        
    470100   470100         2976.5143      304.12282      7698.698       3034.1638      10732.862      61007.808      87120        
    470200   470200         2977.1701      295.46489      7721.1641      2947.7857      10668.95       61037.701      87120        
    470300   470300         2977.8215      298.81542      7709.4644      2981.2131      10690.677      61077.219      87120        
    470400   470400         2978.4794      304.23308      7661.7225      3035.2639      10696.986      60921.244      87120        
    470500   470500         2979.1409      293.32821      7715.4662      2926.4684      10641.935      61083.476      87120        
    470600   470600         2979.7946      297.65888      7685.3954      2969.6746      10655.07       60955.441      87120        
    470700   470700         2980.4391      307.81188      7700.05        3070.9687      10771.019      60975.404      87120        
    470800   470800         2981.1047      306.98234      7671.9667      3062.6926      10734.659      60988.658      87120        
    470900   470900         2981.7588      298.73633      7685.6063      2980.4241      10666.03       61035.769      87120        
    471000   471000         2982.3977      292.39547      7741.7429      2917.1628      10658.906      61137.33       87120        
    471100   471100         2983.0429      304.38664      7703.4395      3036.7959      10740.235      61104.407      87120        
    471200   471200         2983.6939      303.31339      7713.0108      3026.0883      10739.099      61040.159      87120        
    471300   471300         2984.3331      297.6579       7727.2763      2969.6647      10696.941      61124.53       87120        
    471400   471400         2984.9899      297.90983      7707.2142      2972.1782      10679.392      61099.539      87120        
    471500   471500         2985.6654      305.20723      7641.0613      3044.9827      10686.044      60841.418      87120        
    471600   471600         2986.3146      300.96133      7710.1319      3002.6223      10712.754      61063.794      87120        
    471700   471700         2986.9758      303.42476      7724.3947      3027.1994      10751.594      61133.151      87120        
    471800   471800         2987.6349      303.26948      7647.7005      3025.6502      10673.351      60819.87       87120        
    471900   471900         2988.2955      297.49738      7681.886       2968.0633      10649.949      61038.228      87120        
    472000   472000         2988.9567      300.04231      7676.5753      2993.4535      10670.029      60927.109      87120        
    472100   472100         2989.6082      301.20314      7669.4314      3005.0349      10674.466      60886.252      87120        
    472200   472200         2990.2558      297.77252      7674.8169      2970.8083      10645.625      60985.494      87120        
    472300   472300         2990.9037      295.38641      7666.4965      2947.0026      10613.499      60845.029      87120        
    472400   472400         2991.5515      299.27331      7650.7691      2985.7813      10636.55       60865.588      87120        
    472500   472500         2992.208       300.78461      7731.6498      3000.8593      10732.509      61186.449      87120        
    472600   472600         2992.8566      304.91183      7703.376       3042.0356      10745.412      60945.913      87120        
    472700   472700         2993.5199      294.78073      7673.927       2940.9599      10614.887      60926.986      87120        
    472800   472800         2994.1557      296.53373      7631.7681      2958.4491      10590.217      60762.462      87120        
    472900   472900         2994.8135      301.97722      7644.3428      3012.7576      10657.1        60751.476      87120        
    473000   473000         2995.4646      300.41483      7723.9491      2997.17        10721.119      61130.395      87120        
    473100   473100         2996.11        298.66258      7719.5335      2979.6883      10699.222      61003.634      87120        
    473200   473200         2996.7481      297.3795       7644.4017      2966.8873      10611.289      60830.75       87120        
    473300   473300         2997.3988      291.70086      7620.4646      2910.2328      10530.697      60683.162      87120        
    473400   473400         2998.048       301.25412      7658.6305      3005.5434      10664.174      60813.769      87120        
    473500   473500         2998.6998      305.10282      7677.8384      3043.9411      10721.779      60934.962      87120        
    473600   473600         2999.3456      297.02901      7708.0868      2963.3905      10671.477      61000.781      87120        
    473700   473700         3000.0046      300.57118      7630.7655      2998.7299      10629.495      60728.95       87120        
    473800   473800         3000.6587      295.83101      7676.9152      2951.4383      10628.354      60919.017      87120        
    473900   473900         3001.325       305.53892      7664.9028      3048.2919      10713.195      60821.045      87120        
    474000   474000         3001.9868      309.62374      7651.4942      3089.0453      10740.539      60896.883      87120        
    474100   474100         3002.6316      297.20901      7707.6758      2965.1863      10672.862      61002.417      87120        
    474200   474200         3003.2817      300.98768      7655.5829      3002.8852      10658.468      60890.393      87120        
    474300   474300         3003.9349      298.04207      7669.491       2973.4975      10642.989      60917.821      87120        
    474400   474400         3004.5748      303.45937      7642.2332      3027.5447      10669.778      60782.859      87120        
    474500   474500         3005.2272      297.40316      7706.9549      2967.1232      10674.078      61045.895      87120        
    474600   474600         3005.8874      303.45495      7674.7739      3027.5007      10702.275      60945.762      87120        
    474700   474700         3006.5455      295.70047      7748.8183      2950.1359      10698.954      61133.187      87120        
    474800   474800         3007.2044      300.61588      7684.5399      2999.1758      10683.716      61019.315      87120        
    474900   474900         3007.8589      299.04677      7667.4826      2983.5212      10651.004      60814.767      87120        
    475000   475000         3008.5079      304.86726      7621.6616      3041.591       10663.253      60735.647      87120        
    475100   475100         3009.1602      297.68287      7705.7132      2969.9139      10675.627      61072.109      87120        
    475200   475200         3009.813       301.05373      7678.5694      3003.5442      10682.114      60914.874      87120        
    475300   475300         3010.4503      303.79495      7651.234       3030.8927      10682.127      60877.561      87120        
    475400   475400         3011.0964      308.8488       7645.5577      3081.3139      10726.872      60768.726      87120        
    475500   475500         3011.7452      296.24647      7695.6165      2955.5833      10651.2        60958.764      87120        
    475600   475600         3012.4011      294.74143      7697.183       2940.5678      10637.751      61027.074      87120        
    475700   475700         3013.0585      300.25224      7722.4665      2995.548       10718.014      61087.098      87120        
    475800   475800         3013.7117      305.50574      7711.0044      3047.9608      10758.965      61041.678      87120        
    475900   475900         3014.3476      301.09743      7705.8533      3003.9802      10709.833      60990.405      87120        
    476000   476000         3014.9855      300.26625      7692.8673      2995.6876      10688.555      60934.185      87120        
    476100   476100         3015.6263      299.27025      7697.8724      2985.7508      10683.623      61063.674      87120        
    476200   476200         3016.2632      298.58511      7705.9192      2978.9154      10684.835      61008.032      87120        
    476300   476300         3016.9125      303.7908       7683.4003      3030.8513      10714.252      60928.231      87120        
    476400   476400         3017.5635      303.29492      7703.4972      3025.904       10729.401      61042.214      87120        
    476500   476500         3018.2069      303.96246      7660.3549      3032.5639      10692.919      60837.742      87120        
    476600   476600         3018.8686      295.24631      7707.2155      2945.6049      10652.82       61017.86       87120        
    476700   476700         3019.5296      297.98147      7731.5747      2972.893       10704.468      61137.556      87120        
    476800   476800         3020.1883      307.32605      7738.5075      3066.1217      10804.629      61105.259      87120        
    476900   476900         3020.8485      310.41248      7671.5253      3096.9143      10768.44       60932.476      87120        
    477000   477000         3021.4936      303.88855      7671.4516      3031.8265      10703.278      60960.82       87120        
    477100   477100         3022.14        294.42391      7723.0967      2937.4         10660.497      61057.018      87120        
    477200   477200         3022.7898      297.30664      7711.1342      2966.1603      10677.294      61108.205      87120        
    477300   477300         3023.4298      301.3087       7754.0558      3006.088       10760.144      61240.352      87120        
    477400   477400         3024.0806      305.00806      7733.3964      3042.9956      10776.392      61158.822      87120        
    477500   477500         3024.7304      304.22584      7665.8322      3035.1916      10701.024      60898.051      87120        
    477600   477600         3025.4005      298.09276      7679.8917      2974.0032      10653.895      60884.66       87120        
    477700   477700         3026.0578      296.60991      7708.8105      2959.2092      10668.02       61060.478      87120        
    477800   477800         3026.7046      300.31255      7696.9867      2996.1496      10693.136      61054.588      87120        
    477900   477900         3027.3498      305.04746      7726.3377      3043.3887      10769.726      61094.204      87120        
    478000   478000         3027.999       308.72135      7704.2745      3080.0422      10784.317      61088.42       87120        
    478100   478100         3028.6433      303.16317      7654.9076      3024.5896      10679.497      60905.715      87120        
    478200   478200         3029.2905      295.00153      7722.6011      2943.1627      10665.764      61037.098      87120        
    478300   478300         3029.9431      300.35494      7724.8602      2996.5725      10721.433      61172.528      87120        
    478400   478400         3030.6033      303.05198      7737.0744      3023.4803      10760.555      61173.267      87120        
    478500   478500         3031.2597      310.16606      7644.6844      3094.4559      10739.14       60837.553      87120        
    478600   478600         3031.9228      296.84064      7651.63        2961.5111      10613.141      60863.727      87120        
    478700   478700         3032.589       296.58474      7694.8638      2958.9581      10653.822      60919.218      87120        
    478800   478800         3033.2669      301.5566       7727.744       3008.5612      10736.305      61150.322      87120        
    478900   478900         3033.934       302.54261      7707.1121      3018.3985      10725.511      61099.925      87120        
    479000   479000         3034.6019      297.49192      7656.8515      2968.0088      10624.86       60817.182      87120        
    479100   479100         3035.2807      289.95857      7657.5483      2892.8503      10550.399      60863.588      87120        
    479200   479200         3035.9486      294.3445       7724.7914      2936.6078      10661.399      61045.238      87120        
    479300   479300         3036.6158      304.2654       7675.8435      3035.5863      10711.43       60938.878      87120        
    479400   479400         3037.2748      303.70528      7664.48        3029.9981      10694.478      60964.053      87120        
    479500   479500         3037.9365      299.22755      7665.8687      2985.3248      10651.194      60835.207      87120        
    479600   479600         3038.5947      301.28709      7649.6311      3005.8723      10655.503      60868.564      87120        
    479700   479700         3039.2432      301.84525      7697.4568      3011.441       10708.898      61083.852      87120        
    479800   479800         3039.8933      299.81774      7703.2618      2991.213       10694.475      61017.383      87120        
    479900   479900         3040.5463      297.08943      7644.8311      2963.9933      10608.824      60803.521      87120        
    480000   480000         3041.2032      292.93855      7658.7846      2922.5809      10581.365      60820.163      87120        
    480100   480100         3041.8555      300.01048      7703.1091      2993.1359      10696.245      60997.5        87120        
    480200   480200         3042.5129      303.55401      7713.2319      3028.4889      10741.721      61109.389      87120        
    480300   480300         3043.1663      295.9034       7736.7782      2952.1605      10688.939      61139.891      87120        
    480400   480400         3043.8156      297.68415      7690.2134      2969.9266      10660.14       60974.35       87120        
    480500   480500         3044.4747      303.97428      7683.1504      3032.6819      10715.832      61006.298      87120        
    480600   480600         3045.1382      312.31904      7682.5267      3115.9356      10798.462      60940.266      87120        
    480700   480700         3045.7943      299.7377       7718.7473      2990.4145      10709.162      61128.078      87120        
    480800   480800         3046.4587      295.79371      7723.8059      2951.0662      10674.872      61041.247      87120        
    480900   480900         3047.106       293.90308      7721.9541      2932.2038      10654.158      61016.144      87120        
    481000   481000         3047.7634      298.72409      7683.9243      2980.302       10664.226      60937.606      87120        
    481100   481100         3048.4046      297.89217      7764.2586      2972.0021      10736.261      61182.515      87120        
    481200   481200         3049.0584      311.37009      7683.7193      3106.4682      10790.187      61037.466      87120        
    481300   481300         3049.6983      298.39617      7720.871       2977.0304      10697.901      61076.008      87120        
    481400   481400         3050.3501      294.25346      7736.5176      2935.6995      10672.217      61103.73       87120        
    481500   481500         3050.9864      304.91327      7679.4101      3042.05        10721.46       61001.615      87120        
    481600   481600         3051.6352      305.63041      7681.2205      3049.2047      10730.425      60917.659      87120        
    481700   481700         3052.2871      297.6153       7726.7255      2969.2398      10695.965      61139.818      87120        
    481800   481800         3052.9472      285.95283      7768.647       2852.886       10621.533      61282.185      87120        
    481900   481900         3053.6145      297.29979      7701.9707      2966.092       10668.063      60974.283      87120        
    482000   482000         3054.2781      300.79224      7727.5577      3000.9354      10728.493      61121.456      87120        
    482100   482100         3054.9347      303.37986      7724.0149      3026.7514      10750.766      61091.518      87120        
    482200   482200         3055.5842      300.88674      7709.6775      3001.8782      10711.556      61008.009      87120        
    482300   482300         3056.2434      293.27775      7692.5018      2925.965       10618.467      61050.635      87120        
    482400   482400         3056.899       294.23298      7699.8422      2935.4951      10635.337      60955.442      87120        
    482500   482500         3057.5624      300.8214       7679.7191      3001.2263      10680.945      60949.528      87120        
    482600   482600         3058.2235      301.0881       7710.7541      3003.8871      10714.641      61099.835      87120        
    482700   482700         3058.8798      310.12707      7633.8401      3094.0668      10727.907      60764.827      87120        
    482800   482800         3059.5391      294.20107      7705.7292      2935.1767      10640.906      61060.835      87120        
    482900   482900         3060.1903      294.5043       7702.3386      2938.202       10640.541      61002.183      87120        
    483000   483000         3060.8469      298.5202       7691.9231      2978.2677      10670.191      60967.619      87120        
    483100   483100         3061.495       300.02248      7693.9541      2993.2557      10687.21       61035.615      87120        
    483200   483200         3062.1408      298.43212      7709.1153      2977.389       10686.504      61086.308      87120        
    483300   483300         3062.7972      307.05617      7696.6387      3063.4291      10760.068      61030.509      87120        
    483400   483400         3063.4466      309.91474      7660.7048      3091.9484      10752.653      60928.162      87120        
    483500   483500         3064.1023      298.41537      7679.5022      2977.2219      10656.724      60947.032      87120        
    483600   483600         3064.7603      294.15996      7724.357       2934.7666      10659.124      61099.432      87120        
    483700   483700         3065.4197      299.54375      7734.283       2988.4794      10722.762      61172.016      87120        
    483800   483800         3066.0825      306.34888      7679.3859      3056.3727      10735.759      60896.782      87120        
    483900   483900         3066.7465      298.60584      7703.5443      2979.1221      10682.666      61024.323      87120        
    484000   484000         3067.4114      300.78339      7673.3713      3000.8471      10674.218      60944.708      87120        
    484100   484100         3068.0701      298.72225      7698.5243      2980.2836      10678.808      60936.596      87120        
    484200   484200         3068.7299      297.57339      7715.2456      2968.8216      10684.067      61091.781      87120        
    484300   484300         3069.3923      309.26609      7686.051       3085.477       10771.528      60977.358      87120        
    484400   484400         3070.0526      305.00701      7730.4351      3042.9852      10773.42       61139.213      87120        
    484500   484500         3070.7139      296.69242      7722.0957      2960.0324      10682.128      61138.622      87120        
    484600   484600         3071.3749      302.04234      7658.9542      3013.4074      10672.362      60781.913      87120        
    484700   484700         3072.0327      304.97183      7641.4172      3042.6342      10684.051      60845.627      87120        
    484800   484800         3072.6868      303.35038      7673.3553      3026.4573      10699.813      60898.843      87120        
    484900   484900         3073.3309      302.50749      7668.3147      3018.0481      10686.363      60823.727      87120        
    485000   485000         3073.9908      294.87284      7660.7279      2941.8789      10602.607      60945.727      87120        
    485100   485100         3074.649       295.2132       7658.8965      2945.2746      10604.171      60845.059      87120        
    485200   485200         3075.2905      301.29261      7700.6719      3005.9274      10706.599      61031.318      87120        
    485300   485300         3075.948       300.24358      7712.5557      2995.4615      10708.017      61111.389      87120        
    485400   485400         3076.6057      300.68253      7670.5601      2999.8409      10670.401      60859.91       87120        
    485500   485500         3077.2619      296.26399      7700.1447      2955.758       10655.903      61057.99       87120        
    485600   485600         3077.9093      307.47039      7677.6262      3067.5617      10745.188      60988.437      87120        
    485700   485700         3078.5721      307.40741      7746.5756      3066.9334      10813.509      61170.6        87120        
    485800   485800         3079.2355      304.63341      7674.1801      3039.2578      10713.438      60986.912      87120        
    485900   485900         3079.8984      295.74709      7703.4583      2950.601       10654.059      60991.688      87120        
    486000   486000         3080.5794      296.66552      7727.5028      2959.764       10687.267      61061.82       87120        
    486100   486100         3081.2373      306.46275      7679.7385      3057.5088      10737.247      61013.117      87120        
    486200   486200         3081.8978      304.24275      7720.3275      3035.3603      10755.688      61155.327      87120        
    486300   486300         3082.5672      299.49788      7747.8435      2988.0218      10735.865      61251.681      87120        
    486400   486400         3083.2235      298.4693       7666.2466      2977.76        10644.007      60943.287      87120        
    486500   486500         3083.8873      292.58467      7685.7782      2919.0503      10604.829      60906.893      87120        
    486600   486600         3084.5629      300.93097      7691.9383      3002.3195      10694.258      61023.876      87120        
    486700   486700         3085.2263      305.84702      7696.1288      3051.3657      10747.495      61050.081      87120        
    486800   486800         3085.8939      299.59092      7718.4831      2988.9501      10707.433      61121.907      87120        
    486900   486900         3086.5477      297.83128      7688.693       2971.3945      10660.088      60977.992      87120        
    487000   487000         3087.2128      307.0838       7610.419       3063.7048      10674.124      60678.505      87120        
    487100   487100         3087.8689      314.9925       7655.6202      3142.6081      10798.228      60910.832      87120        
    487200   487200         3088.5352      309.82087      7703.7868      3091.012       10794.799      61031.493      87120        
    487300   487300         3089.1964      297.34773      7741.2772      2966.5703      10707.847      61188.109      87120        
    487400   487400         3089.8653      303.64374      7657.1443      3029.3841      10686.528      60902.233      87120        
    487500   487500         3090.524       296.86938      7690.0177      2961.7979      10651.816      60908.575      87120        
    487600   487600         3091.194       303.23619      7637.9274      3025.3181      10663.246      60742.642      87120        
    487700   487700         3091.8489      301.94591      7676.4906      3012.4452      10688.936      60908.221      87120        
    487800   487800         3092.5041      300.8816       7689.5834      3001.8269      10691.41       61018.83       87120        
    487900   487900         3093.1586      295.60451      7704.167       2949.1786      10653.346      61059.413      87120        
    488000   488000         3093.8154      299.78997      7680.5144      2990.9359      10671.45       60949.818      87120        
    488100   488100         3094.4619      304.60115      7673.4138      3038.936       10712.35       60866.21       87120        
    488200   488200         3095.1149      306.68659      7636.0529      3059.7419      10695.795      60802.103      87120        
    488300   488300         3095.7734      293.10443      7704.6033      2924.2359      10628.839      61042.14       87120        
    488400   488400         3096.4351      296.93063      7696.3059      2962.409       10658.715      60968.679      87120        
    488500   488500         3097.0892      303.68619      7680.2574      3029.8077      10710.065      60969.097      87120        
    488600   488600         3097.7584      305.24704      7646.2247      3045.3799      10691.605      60820.393      87120        
    488700   488700         3098.4222      296.7619       7672.03        2960.7256      10632.756      60886.447      87120        
    488800   488800         3099.069       294.57038      7718.2188      2938.8613      10657.08       61196.825      87120        
    488900   488900         3099.7309      293.62728      7781.4761      2929.4522      10710.928      61326.47       87120        
    489000   489000         3100.3897      302.47055      7731.4053      3017.6795      10749.085      61215.852      87120        
    489100   489100         3101.0282      307.1396       7660.1214      3064.2615      10724.383      60884.797      87120        
    489200   489200         3101.6748      297.04519      7678.0716      2963.5519      10641.623      60891.498      87120        
    489300   489300         3102.3154      296.94154      7668.3824      2962.5178      10630.9        60936.279      87120        
    489400   489400         3102.9582      305.5061       7669.3228      3047.9645      10717.287      60924.624      87120        
    489500   489500         3103.6088      307.17493      7728.7984      3064.614       10793.412      61158.657      87120        
    489600   489600         3104.2713      298.90553      7728.0468      2982.1121      10710.159      61212.571      87120        
    489700   489700         3104.9301      297.68341      7718.7569      2969.9192      10688.676      61068.045      87120        
    489800   489800         3105.5896      302.92336      7700.4462      3022.197       10722.643      61039.694      87120        
    489900   489900         3106.2445      294.38753      7754.2273      2937.0371      10691.264      61210.715      87120        
    490000   490000         3106.902       291.90069      7716.5598      2912.2264      10628.786      61021.595      87120        
    490100   490100         3107.5579      296.64784      7720.1114      2959.5876      10679.699      61096.847      87120        
    490200   490200         3108.2098      305.1917       7689.4539      3044.8278      10734.282      60978.538      87120        
    490300   490300         3108.8587      300.19927      7716.5067      2995.0194      10711.526      61060.439      87120        
    490400   490400         3109.499       296.17356      7744.6681      2954.8558      10699.524      61191.362      87120        
    490500   490500         3110.1494      299.97354      7726.862       2992.7674      10719.629      61124.683      87120        
    490600   490600         3110.799       307.89056      7695.0148      3071.7537      10766.768      61006.622      87120        
    490700   490700         3111.454       297.77367      7733.831       2970.8198      10704.651      61107.344      87120        
    490800   490800         3112.1032      294.42339      7705.7444      2937.3948      10643.139      61020.771      87120        
    490900   490900         3112.7543      298.14665      7720.9288      2974.5409      10695.47       61111.486      87120        
    491000   491000         3113.4123      301.86052      7718.2788      3011.5934      10729.872      61098.621      87120        
    491100   491100         3114.0519      301.66522      7693.7283      3009.6449      10703.373      60967.984      87120        
    491200   491200         3114.6957      292.72514      7726.8033      2920.4518      10647.255      61111.136      87120        
    491300   491300         3115.3415      290.54887      7726.4174      2898.7396      10625.157      61112.148      87120        
    491400   491400         3115.9887      302.60873      7690.3373      3019.0581      10709.395      60948.023      87120        
    491500   491500         3116.6376      304.68843      7687.0148      3039.8068      10726.822      61001.893      87120        
    491600   491600         3117.295       302.62776      7642.5527      3019.2479      10661.801      60840.598      87120        
    491700   491700         3117.9552      295.18149      7679.7699      2944.9582      10624.728      60907.868      87120        
    491800   491800         3118.6108      305.06859      7607.8785      3043.5996      10651.478      60739.751      87120        
    491900   491900         3119.2694      300.38966      7655.5063      2996.9189      10652.425      60821.32       87120        
    492000   492000         3119.9264      295.78071      7694.2083      2950.9365      10645.145      60957.748      87120        
    492100   492100         3120.5785      302.80346      7685.5015      3021.0009      10706.502      60931.688      87120        
    492200   492200         3121.2328      307.42314      7719.8764      3067.0903      10786.967      61086.284      87120        
    492300   492300         3121.8955      301.16558      7744.7817      3004.6601      10749.442      61176.461      87120        
    492400   492400         3122.5465      298.93716      7693.4333      2982.4277      10675.861      61004.497      87120        
    492500   492500         3123.2062      299.62996      7676.9521      2989.3396      10666.292      60949.593      87120        
    492600   492600         3123.8613      302.25226      7674.523       3015.5017      10690.025      60987.98       87120        
    492700   492700         3124.5138      298.79333      7738.7781      2980.9927      10719.771      61185.587      87120        
    492800   492800         3125.1653      302.71675      7705.007       3020.1358      10725.143      61025.915      87120        
    492900   492900         3125.8143      295.64863      7672.3214      2949.6188      10621.94       60891.781      87120        
    493000   493000         3126.4681      291.753        7715.8108      2910.7529      10626.564      61064.049      87120        
    493100   493100         3127.1196      294.78548      7758.997       2941.0073      10700.004      61177.538      87120        
    493200   493200         3127.768       301.3523       7742.0632      3006.5229      10748.586      61186.644      87120        
    493300   493300         3128.4123      305.91396      7702.504       3052.0336      10754.538      61056.688      87120        
    493400   493400         3129.0597      297.60431      7733.1598      2969.1302      10702.29       61205.839      87120        
    493500   493500         3129.7077      296.92975      7723.0136      2962.4002      10685.414      61141.353      87120        
    493600   493600         3130.347       304.638        7700.766       3039.3037      10740.07       61043.838      87120        
    493700   493700         3130.9942      306.48537      7675.1296      3057.7344      10732.864      60949.703      87120        
    493800   493800         3131.645       291.82555      7733.9021      2911.4768      10645.379      61154.641      87120        
    493900   493900         3132.2949      299.30749      7680.1817      2986.1224      10666.304      60886.587      87120        
    494000   494000         3132.9489      306.85935      7669.5241      3061.4655      10730.99       60935.517      87120        
    494100   494100         3133.6026      301.16448      7716.2754      3004.6491      10720.925      61012.699      87120        
    494200   494200         3134.2457      291.03063      7687.4874      2903.546       10591.033      60949.797      87120        
    494300   494300         3134.8927      291.84869      7706.9424      2911.7076      10618.65       61022.478      87120        
    494400   494400         3135.548       300.36788      7700.2731      2996.7016      10696.975      60963.089      87120        
    494500   494500         3136.197       301.26008      7712.5673      3005.6029      10718.17       61070.967      87120        
    494600   494600         3136.8545      298.94001      7710.7529      2982.4561      10693.209      61025.027      87120        
    494700   494700         3137.5174      297.91627      7699.4963      2972.2425      10671.739      60997.629      87120        
    494800   494800         3138.1771      304.82346      7698.5331      3041.154       10739.687      61055.254      87120        
    494900   494900         3138.8338      304.97525      7721.4299      3042.6683      10764.098      61050.704      87120        
    495000   495000         3139.5019      303.57851      7673.0625      3028.7333      10701.796      60916.271      87120        
    495100   495100         3140.1538      297.79204      7711.0256      2971.0031      10682.029      61071.31       87120        
    495200   495200         3140.8005      299.01229      7695.8412      2983.1773      10679.018      60994.695      87120        
    495300   495300         3141.4453      302.62643      7662.4655      3019.2347      10681.7        60902.827      87120        
    495400   495400         3142.0748      303.23241      7707.6856      3025.2804      10732.966      60996.257      87120        
    495500   495500         3142.7155      304.43724      7753.026       3037.3007      10790.327      61208.25       87120        
    495600   495600         3143.3599      305.14734      7700.6715      3044.3852      10745.057      61090.285      87120        
    495700   495700         3143.9988      297.93176      7694.0576      2972.397       10666.455      60986.625      87120        
    495800   495800         3144.6591      294.18027      7708.9378      2934.9693      10643.907      61019.926      87120        
    495900   495900         3145.3084      297.09823      7715.3604      2964.0811      10679.441      61012.063      87120        
    496000   496000         3145.9724      302.5713       7734.9559      3018.6847      10753.641      61047.825      87120        
    496100   496100         3146.6305      306.45121      7685.5525      3057.3936      10742.946      61007.081      87120        
    496200   496200         3147.2892      297.4856       7739.2366      2967.9457      10707.182      61151.527      87120        
    496300   496300         3147.9533      297.91425      7756.5478      2972.2223      10728.77       61205.87       87120        
    496400   496400         3148.6164      303.57691      7725.4073      3028.7174      10754.125      61158.758      87120        
    496500   496500         3149.2644      304.25446      7712.8758      3035.4772      10748.353      61041.872      87120        
    496600   496600         3149.918       297.27693      7668.5515      2965.864       10634.415      60905.527      87120        
    496700   496700         3150.5639      294.20807      7711.8446      2935.2466      10647.091      61103.343      87120        
    496800   496800         3151.2252      300.76111      7739.7643      3000.6248      10740.389      61105.631      87120        
    496900   496900         3151.8785      306.51993      7672.9306      3058.0792      10731.01       60948.552      87120        
    497000   497000         3152.5362      299.45489      7644.5271      2987.5929      10632.12       60786.629      87120        
    497100   497100         3153.1877      295.19278      7682.3051      2945.0708      10627.376      60882.445      87120        
    497200   497200         3153.827       300.59355      7727.4737      2998.9531      10726.427      61211.186      87120        
    497300   497300         3154.4806      301.69461      7743.2109      3009.9381      10753.149      61169.798      87120        
    497400   497400         3155.1377      296.62677      7746.5786      2959.3774      10705.956      61207.425      87120        
    497500   497500         3155.794       300.56293      7720.9816      2998.6476      10719.629      61112.479      87120        
    497600   497600         3156.4418      307.02485      7711.1592      3063.1167      10774.276      61002.808      87120        
    497700   497700         3157.1054      299.15002      7740.7291      2984.5513      10725.28       61223.634      87120        
    497800   497800         3157.7653      296.73561      7707.9734      2960.4633      10668.437      61081.966      87120        
    497900   497900         3158.4126      294.97591      7675.3646      2942.9072      10618.272      60844.772      87120        
    498000   498000         3159.0646      303.63496      7638.8398      3029.2965      10668.136      60803.509      87120        
    498100   498100         3159.7055      305.9825       7690.4276      3052.7174      10743.145      60985.155      87120        
    498200   498200         3160.3492      303.77368      7699.0521      3030.6805      10729.733      61012.023      87120        
    498300   498300         3160.9989      300.75954      7698.25        3000.6092      10698.859      61017.622      87120        
    498400   498400         3161.6322      301.97344      7632.1119      3012.72        10644.832      60720.28       87120        
    498500   498500         3162.2731      299.36545      7623.8396      2986.7006      10610.54       60687.868      87120        
    498600   498600         3162.9201      306.33455      7669.2432      3056.2297      10725.473      60842.72       87120        
    498700   498700         3163.5838      303.85138      7769.4987      3031.4557      10800.954      61253.089      87120        
    498800   498800         3164.2374      301.02471      7734.8578      3003.2547      10738.112      61225.418      87120        
    498900   498900         3164.8979      299.27539      7666.8918      2985.8021      10652.694      60864.018      87120        
    499000   499000         3165.5623      296.24796      7658.124       2955.5981      10613.722      60814.706      87120        
    499100   499100         3166.2155      294.10235      7719.1337      2934.1919      10653.326      61025.949      87120        
    499200   499200         3166.8606      307.28664      7732.7572      3065.7285      10798.486      61140.807      87120        
    499300   499300         3167.5173      308.75906      7729.8033      3080.4185      10810.222      61181.876      87120        
    499400   499400         3168.1825      302.31986      7710.6269      3016.1761      10726.803      60991.085      87120        
    499500   499500         3168.8438      298.59192      7663.8676      2978.9832      10642.851      60825.042      87120        
    499600   499600         3169.5077      299.92182      7645.7962      2992.2514      10638.048      60832.418      87120        
    499700   499700         3170.1675      306.48726      7656.8128      3057.7533      10714.566      60845.141      87120        
    499800   499800         3170.8268      305.22834      7723.2397      3045.1933      10768.433      61091.079      87120        
    499900   499900         3171.4764      305.35286      7729.6515      3046.4356      10776.087      61127.33       87120        
    500000   500000         3172.1419      301.55614      7666.6275      3008.5566      10675.184      60866.755      87120        
Loop time of 3172.14 on 8 procs for 500000 steps with 4343 atoms

Performance: 13.619 ns/day, 1.762 hours/ns, 157.622 timesteps/s, 684.553 katom-step/s
98.6% CPU use with 8 MPI tasks x no OpenMP threads

MPI task timing breakdown:
Section |  min time  |  avg time  |  max time  |%varavg| %total
---------------------------------------------------------------
Pair    | 4.9973     | 1158.9     | 2165.6     |2255.4 | 36.53
Bond    | 1.2153     | 17.192     | 23.635     | 223.0 |  0.54
Neigh   | 353.91     | 355.94     | 359.22     |  10.8 | 11.22
Comm    | 503.32     | 1499.8     | 2657.4     |1953.1 | 47.28
Output  | 1.3165     | 1.4173     | 1.5539     |   6.0 |  0.04
Modify  | 105.49     | 121.56     | 186.2      | 235.3 |  3.83
Other   |            | 17.38      |            |       |  0.55

Nlocal:        542.875 ave        1130 max           0 min
Histogram: 2 0 2 0 0 0 2 0 0 2
Nghost:        4657.38 ave        8155 max        1347 min
Histogram: 2 0 0 2 0 2 0 0 0 2
Neighs:         172928 ave      397672 max           0 min
Histogram: 2 2 0 0 0 0 2 0 0 2

Total # of neighbors = 1383428
Ave neighs/atom = 318.54202
Ave special neighs/atom = 6.3145291
Neighbor list builds = 35018
Dangerous builds = 0
unfix                  mynvt


write_data             nvt_500ps.data
System init for write_data ...
Generated 21 of 21 mixed pair_coeff terms from arithmetic mixing rule
WARNING: Dihedrals are defined but no dihedral style is set (../force.cpp:207)
WARNING: Likewise 1-4 special neighbor interactions != 1.0 (../force.cpp:209)
WARNING: Impropers are defined but no improper style is set (../force.cpp:212)












Total wall time: 0:52:52
